Li La Zr O 
 1.0000000000000000
    13.6545587200849052    0.0000000000000000    0.0000000000000000
    -0.3133291357257455   13.7530881330805101   -0.0000000000000000
    -0.6105960502488184    0.5332836654915646   13.2340642716957184
 Li  La  Zr  O  
  56  24  16  96
Cartesian
  6.4311392300000003  0.3374500800000000  9.7654440600000001
  6.5770388799999999  0.0588581600000000  3.2851304500000000
  6.3856555699999999  7.0409796399999998  6.7054871699999996
 -0.1334432900000000  0.3138625300000000  6.6938057100000004
  9.2655473599999993  2.5537064599999999 -0.1440130800000000
  4.0002859700000002  2.5702845499999998  6.6336813499999998
  2.1944778600000001  2.4409603999999998  3.3056838499999999
 10.5678263700000006  2.9887307000000001  9.8013655400000008
  3.8644569199999999  4.6224637599999996  9.8709017699999997
  8.9685216099999998  4.6279354000000001  3.3543907399999999
 10.8944598300000006  4.6082290600000002  6.6140561499999997
  8.8442867199999995 11.6748194000000005  6.5928860900000004
  4.3087625200000002  1.1945531199999999  4.2187419000000004
  8.3749433700000004  1.6275420000000000 10.8271258400000008
  0.6593312600000000 11.7614921700000004  7.4877779699999998
  5.2509381900000003  4.8000468200000004  7.4210916700000000
  8.7910234799999998  5.9857560699999999  5.6987040499999999
 10.9462876500000004 13.0558627699999992  5.6442174300000003
  5.2099780700000000  2.4481399800000001  8.9796093799999994
  7.7573194200000000  2.1875405200000002  2.3562110999999999
 10.9586844100000000  5.9471757500000004  4.1724389600000000
  1.7353589700000001  6.2908520599999997 10.8634750800000006
  7.4307909399999996  9.5938128500000008  7.5097712500000000
 12.1605848299999995  2.4769582200000002  7.4665569899999999
  1.9070124200000000  1.4103750200000000  5.5957172100000001
  4.1332005299999999  8.3301324200000000  5.7000010600000000
 12.1182623300000003  4.8942627700000001  9.1114180699999991
  0.8660561600000000  4.7691781700000000  2.2370145300000002
 -0.1807617800000000  7.0736002100000004  3.4005354600000000
 -0.5456927400000000  7.2478433300000003 10.0960931800000004
 -0.0106154200000000 -0.0978536800000000  0.1587442300000000
  6.8142098100000004  6.8533108199999999  0.0356396600000000
  1.8183736100000001  9.5480272700000004  6.5504984000000004
 10.9976040699999995  9.2347797499999995 -0.0321859200000000
  8.6371686099999998  9.7189643500000003 10.0268297299999993
  3.9290437300000001  9.3284126100000009  3.2660709699999999
 10.8225517999999994 11.5455607400000009  3.2648318199999999
  1.7192162700000000 11.5397538500000003  9.8768689300000005
  4.2647440400000001 11.3135569000000000 -0.0243484800000000
  2.2388574499999998  4.3593299800000000 -0.0245634600000000
 10.7467507500000004  8.5650966000000004 10.9572896400000008
  1.8793313199999999  8.1696181499999998  4.0932247000000004
  7.7615902999999999  4.5384520600000000  1.0531931500000000
 12.2790499999999998 11.6220277700000008  0.8874330000000000
  1.2780501200000001 13.1467968099999997 12.4062526900000005
  3.7242130300000000  6.2208891599999996 12.2801400699999999
 12.1864883600000002  9.3649651400000007  2.4815015499999999
  0.5275543400000000  9.4230064999999996  9.0341170300000009
  3.7197114999999998 13.0457260399999999 10.7379860199999992
  8.5572739799999997 12.7364633499999993  4.0407544900000003
  1.1001069600000000  2.3310670500000001  0.8665655400000000
  5.6123661000000000  9.1596135200000006  0.8794672800000000
  8.1922215800000000  8.4816977999999992 12.4270292100000006
 10.8619669900000009  1.5294041599999999 12.4529451899999994
  5.3991623000000004 11.5078794599999998  2.3643270300000001
  7.1166832500000003 11.8643024399999995  9.0700278000000001
  6.9059054199999999  0.1154047100000000 -0.0933605300000000
  6.5139590199999997  0.4347671100000000  6.6070641900000000
 -0.1747074100000000  0.0534587300000000  3.3661777399999999
  6.4040262999999999  6.8785027000000003  3.2937398999999998
  9.7573746299999993  8.8798680599999997  4.9343203600000001
  9.9505752199999993  2.0286238299999999  5.0710579300000003
  8.1369779399999995  3.8082797400000001  8.1024043799999994
 11.2863631800000004 10.7221487300000007  8.1390620299999998
  9.5739695000000005  5.5979614499999997 11.7389567800000005
  9.2510666399999995 12.4924207200000001 11.6561968100000009
  8.2079188700000003 10.5012859899999995  1.7303251799999999
 11.7420377499999997  3.6708052000000002  1.7243011399999999
 -0.5907640400000000  7.1214365199999996  6.6513773000000000
 -0.2243014700000000  6.9654131799999996  0.1434238900000000
  6.1236345500000002  7.2720609300000003  9.8717205999999997
 -0.4523722500000000  0.3947489700000000  9.8309756499999992
  2.9806060599999999  2.3435460799999999 11.6234254000000004
  2.8553659900000001  9.1376418499999996 11.6620884799999995
  1.4232336800000001 10.4872524800000004  1.5916253600000001
  4.9450530400000003  3.6382259200000000  1.5442894000000000
  2.7529231400000000 12.2432961999999996  5.0349101300000001
  3.2023968300000001  5.3416248599999996  4.8236690900000001
  1.2406884700000000  3.8609419300000001  8.1599736499999995
  4.3493643700000000 10.5604050300000001  8.2610068499999993
  9.6916268799999994  7.2241197100000001  8.4311670700000008
  9.8490297699999996  0.3564875400000000  8.2574549299999997
  6.1270858400000003  3.7567413799999998 11.5115398399999993
  6.6830348099999997  3.6002830600000002  4.9919868000000003
  9.8423244299999997  6.9424562600000002  1.6055345800000000
  2.8033155100000000  7.0818986199999996  8.3259437399999996
  6.4485251400000001 10.4189168300000006  4.8458634900000002
 -0.3333226800000000  3.6834356399999999  4.8240300999999999
  3.3892436699999999 -0.0642646000000000  1.5477926900000001
  3.1391788799999998  6.9686580100000004  1.5832423200000001
 -0.4536514000000000 10.3649755300000006  4.8339740300000003
 -0.7604725400000000 10.7695323399999996 11.5579157899999991
  3.1518315299999999  0.2068950100000000  8.3674746199999994
 10.0250025300000001 -0.0217317600000000  1.5633620200000000
 -0.5397218400000000  3.8798661600000002 11.6889368200000003
  6.0338457300000004 10.8111362799999995 11.3852405599999997
 10.7068508300000005  6.6418209800000003  6.2523171000000000
  8.7620216800000001 13.5560873900000001  6.1578381400000000
  5.9679236700000002  4.6115912200000002  9.4200580400000007
  7.0022106800000001  4.4237792599999999  2.8092234199999999
  2.5570828699999999  0.6017545000000000  3.7368330900000002
 10.5307151500000007  0.8526775400000000 10.4644671400000000
  7.1981705800000002  2.6747794100000002  0.2121101800000000
  6.1638676800000001  2.9810819899999998  6.9558016800000004
 10.0700796300000004  7.8689461600000001 12.7483263600000001
  9.0275268000000004  0.9683966100000000 12.9548367199999994
 12.5810245100000007  2.9662649399999999  9.6287081699999995
  0.2849915700000000  2.9413993800000000  2.8680550199999999
  9.3226863099999999  6.4435618100000003  3.6523215499999999
  3.4953046300000001  6.6972221400000000 10.3490287199999997
  0.4941945600000000  4.3168501700000004  0.4165820000000000
 12.7268745699999997  4.4182402400000003  7.0916928300000004
  1.1083053199999999  1.0143865700000001  7.9024144200000004
  4.9829466199999999  7.8855403700000002  7.8013002599999997
  7.2939581699999998  1.6154959900000001  4.3252029199999997
  5.6103736800000004  1.9190008800000000 11.1575600799999997
 12.1119428599999992  6.3180915999999998  2.1382826900000000
  0.8702143100000000  6.3716956199999997  8.8978108500000008
  5.6854285899999999  5.8060309099999996  5.3700827300000000
  0.3204374200000000 12.6360954599999999  5.2928303899999998
  7.8321546499999997  6.4231094200000003  7.8173266899999998
 11.6114853000000000 13.2780396399999994  7.6921143199999999
  0.4540211000000000  5.6467002099999997  4.4147350899999998
  5.4656040700000004 12.5213745099999993  4.6319630900000002
 11.5765579699999996  7.8744132100000002  8.6860373600000003
  7.7621687499999998  1.0888402200000000  8.8250684800000005
 12.6988004399999994  1.6093024899999999  5.4179365600000002
  7.0418607599999996  8.4254227799999999  5.5721818299999999
 10.4574088300000003  9.1171004100000008  2.4373046500000002
  9.8817322300000008  2.2088205400000001  2.3131471100000001
  8.6625537300000008  3.9185295500000001  5.6935966300000000
  3.9678414900000001  4.3229600899999996 12.1774010199999996
  9.9050465200000009  4.7917780700000003  0.9807404400000000
  3.3431161100000000  5.0708956900000004  7.5914287299999996
 10.6785857699999998 10.3752276600000002 10.8840849700000000
  8.3404077500000007  3.5157441000000000 10.9840230800000000
 10.1885317700000009  5.1693607300000002  9.1017110100000007
  9.1253002199999997 12.0478096499999996  8.8281995999999996
  1.7449745600000000  3.4451875900000002  5.6902011899999998
  4.2458227800000001 10.3213902900000001  5.6219318999999999
  9.2902846700000001  9.0837965700000005  7.5556456200000000
 10.2359200300000008  2.2940003999999998  7.5523518699999999
 11.4012008300000005  3.9403178699999999  4.2757989600000004
  8.4015788699999998 10.7569427399999995  4.3624865899999996
  3.3153088199999998 13.6808890999999999 12.8306966399999993
  2.0385542200000000  6.8116668300000001 12.8595110899999998
 12.8103023500000006 11.2195516499999997  2.8545397100000001
 -0.2549277300000000 11.4149132499999997  9.3569410699999995
  8.7483283299999997  7.7693019300000001 10.1442978000000004
  3.9095748800000001  7.4244626000000000  3.8034889800000000
 -0.0353421900000000  9.9402473300000000  7.0323639199999999
 12.9978079799999993  9.5149968400000002  0.3054786900000000
  3.9859358999999999  0.7346238300000000  6.2261954299999998
  2.1783108699999998  7.6086026300000000  6.2544273800000001
  6.1145374400000003  9.5095674900000002  2.9188944499999998
  6.5627032600000001  9.9848886500000003  9.5963192100000008
  1.9849229100000001 13.5852506700000006 10.4005457499999991
 10.6705036199999999 13.4255951099999997  3.5891950600000002
  6.6800039299999998 11.3421570400000000  6.8081506899999997
  6.0962857499999998 10.9850916400000003  0.2238172300000000
  8.0265727699999996  7.6235703600000004  1.0705072400000000
 12.0971848000000008  0.8223550600000000  1.1262267699999999
  0.0589560600000000  8.7680234400000003 11.3042144800000006
 12.4665128200000002  8.5970433100000001  4.5883872300000004
  4.7291460100000000 13.1756443599999997  8.7949048100000002
  7.8245660199999998 13.1645949800000004  2.1456415199999999
 12.0359803900000006 12.8154685900000000 12.1067762699999992
  7.0784093900000000  5.9735210099999998 12.1030893200000005
  1.1353733600000000 12.9365029400000005  1.2891169899999999
  5.2513222199999996  6.1535592200000000  1.1558490800000001
  6.8216988499999998 12.7260972999999993 10.9484832200000000
 12.2010573699999991  5.8548466399999999 11.1206953599999991
  5.3438819200000003  0.7618848200000000  2.0826376700000000
  1.2854798800000000  7.7200453500000004  2.1091126400000002
  5.3619264099999997  8.5916466499999995 11.9818859599999996
  0.0942042600000000  1.9468744099999999 11.9106595599999991
  3.4656589200000001  2.4590483100000000  8.9103738099999994
  2.5424157599999999  9.3907360900000008  9.0038635300000003
  1.3028455100000000 11.3412265100000003 12.3554675799999991
 10.9506585800000007 11.0348847400000007  5.6284051000000002
  2.3276789299999998 11.8291334700000004  7.5693854600000003
 10.3182310299999997 11.8712216599999998  1.0291754500000001
  4.3872890199999999  3.3151985200000000  4.3592487799999997
  1.6843736499999999 10.0623790900000003  4.3534535900000000
  3.3183564400000001 11.7611299299999992  2.2508157199999999
  2.9760784000000000  4.9127403599999999  2.4809028999999998
  8.1648438300000006 10.5098986399999994 12.3643562599999992
 10.8708765599999992  3.5191385300000002 12.2137538800000005
  3.0382767400000001  2.0713508400000000  0.8576066700000000
  3.4788746499999998  9.0382500100000005  0.9679414000000000
  4.1223804700000004 11.2923554900000003 10.8933233099999995
  1.3295911100000000  4.2032474200000003 10.9768353199999993
