Nb18 Re18 Te36 S36                      
   1.00000000000000     
    10.0488336801188147  -18.1593895266985399    0.0000000000000000
    20.0679224226358244   -0.0173632563186905    0.0000000000000000
     0.0000000000000000    0.0000000000000000   23.3715000000000011
   Re   Nb   S    Te
    18    18    36    36
Direct
  0.8871265990562125  0.0587062158302827  0.5042762118589574
  0.0559545241953568  0.2279125913328989  0.5084963791622351
  0.0473959992482405  0.7299551604536559  0.4976313929609525
  0.7305243198898247  0.0574027200656095  0.5043904930134921
  0.7310836676535089  0.2123080619777362  0.5077414778472689
  0.7254074333120092  0.3925618945969044  0.5048670621176400
  0.7181804578004652  0.7259910224772204  0.4959158953544605
  0.2266017421425149  0.5486941083665462  0.4994046578211712
  0.2233738422661876  0.8874349157452921  0.4900311756734032
  0.5481441298627296  0.7217561366422570  0.4906539653175145
  0.0552026039268794  0.3916998620863552  0.5065141648795725
  0.3881580105396938  0.8868477419141915  0.4905421076761872
  0.3883721704871567  0.5557374445230595  0.4946340456126557
  0.3912051995841355  0.0469948143890789  0.5024491494563730
  0.8923406639091520  0.7253676527995592  0.4971223428468285
  0.2126403297134334  0.2266689198103654  0.5073272630659579
  0.5427943029471364  0.3968438287556928  0.5044260207104422
  0.2271026780053831  0.7249141327283801  0.4919879595692666
  0.5560192821918685  0.0527212773892075  0.5071729568716027
  0.3878636604094993  0.2269651237006957  0.5103105627789196
  0.0624253048199688  0.5500722090025825  0.5014932404156214
  0.7255207547310328  0.5478949610456205  0.5010454408001478
  0.7295984787493419  0.8815724673105595  0.4973739679044130
  0.8784161522669677  0.2277283997083867  0.5078252795597408
  0.5579871335293319  0.5481329108500527  0.4970401447972514
  0.0568598049222430  0.0553120301501349  0.5033682024202432
  0.0581831021964549  0.8840608825073654  0.4988510948012657
  0.8867933052554806  0.3881606648489258  0.5073212910569974
  0.8955222869283325  0.5469350763994931  0.5038522696757625
  0.8939443298168993  0.8897220487432045  0.4974530052588246
  0.5612156657392831  0.2306657984641344  0.5097783158163552
  0.5538684324317658  0.8844867215582279  0.4971380241582543
  0.3921565336097643  0.3906575161699896  0.5059224394600431
  0.3903179158638544  0.7203591972925689  0.4888272910485993
  0.2255706841567128  0.0534716091400200  0.4991429463963130
  0.2214646657272955  0.3921507735283560  0.5054758300697356
  0.4923669947162487  0.8275222863912534  0.5544950724219068
  0.8314546651368219  0.5010508505402236  0.5708747117823083
  0.6719162210138705  0.4914323663168020  0.4348441940974638
  0.8388181104842729  0.8320370890694222  0.5608692326185184
  0.8287761396269964  0.3357238252472966  0.4400737457664269
  0.1629956943634076  0.3376110795634538  0.5677377444563063
  0.6707152176721650  0.1672939197377292  0.4449798874073604
  0.4976786514480544  0.6657815806496434  0.5549006649726361
  0.8317662424264375  0.1671310690275599  0.4408338825795276
  0.4976975442953019  0.0033054830816902  0.4409257396879604
  0.0041934272878659  0.4940715663839673  0.4382484468876910
  0.1712154082542491  0.4968923245140586  0.4353157865665412
  0.5009403306928569  0.3346876003927863  0.4398383535623031
  0.0013297736996784  0.8338524946870458  0.4310041370212120
  0.1739806495649915  0.9897126780468618  0.5590766414309637
  0.0014733990344083  0.8324753146483062  0.5652718803824073
  0.9998120587435703  0.3362291229543258  0.4463892808607773
  0.4974558457150323  0.4950677138375737  0.4340902938593338
  0.9947231986228937  0.0040255224138395  0.4419078834951375
  0.4975208892833136  0.3430296606810156  0.5738033768237892
  0.3317509526363475  0.5089062672794634  0.5623115120670757
  0.8253965714181511  0.3385200881951227  0.5736810859051743
  0.3334756124283965  0.6676514955795556  0.5540805961954570
  0.1697568993655852  0.5042297731815877  0.5686555173068388
  0.0050041412277191  0.4994996783250400  0.5698501796847238
  0.3334816592638654  0.3343787612705921  0.4436000683802027
  0.8341737549843936  0.1618646563738071  0.5725741928507880
  0.3313710431377565  0.8341593918712920  0.5511805832073773
  0.6656632393761565  0.8313603664802522  0.5589289692228259
  0.1596118654451185  0.1742257504532526  0.4443400554781471
  0.8381112567238743  0.9977373497485745  0.5645734630719825
  0.4895406476634857  0.5076460800662319  0.5636682664810775
  0.3385300185579126  0.9882556257203213  0.5592545318875708
  0.6640903785018601  0.5001690003097732  0.5675734402898812
  0.8380452382541150  0.4932626422286239  0.4372424696725483
  0.1758253742840378  0.8308896493897617  0.5554090240420662
  0.5064790285142385  0.6549234336054809  0.4082144162688732
  0.8336205094898291  0.0079259847094145  0.4196406769522763
  0.1662997984127418  0.1627698609331367  0.5874858089546570
  0.9990540033277090  0.3392215578271648  0.5894110211844531
  0.5006575296285952  0.1724399598051318  0.4281530846668083
  0.5029004858941861  0.1680359759276808  0.5905484012723747
  0.6660442372839105  0.8328046003160495  0.4125946080795020
  0.8381635156388363  0.8320159816650630  0.4130709098222156
  0.8360482898526874  0.6614838624664647  0.4228755611069693
  0.9977328613896198  0.1693694750338459  0.5859191215165260
  0.3337319294807540  0.4940303143681306  0.4175260537265440
  0.3358475275393777  0.0045319362865220  0.4148251620702558
  0.4986297227671493  0.8324410678416372  0.4102658105232758
  0.3301677165438061  0.8375538641899748  0.4080592572332913
  0.1663661883916840  0.6710550976455691  0.5694131973996016
  0.1616757100383967  0.3355750672742192  0.4242844548334758
  0.8292373065626992  0.6728681926657091  0.5750368737332479
  0.1607248868331664  0.0066981300763910  0.4142900149733858
  0.6648073138170404  0.3319006114511259  0.4341359740308306
  0.1636137823795468  0.8354849682636638  0.4109415310142630
  0.3300375342360592  0.1602555701670741  0.5823394998376541
  0.6775155256097118  0.9918855310666926  0.5821581311641247
  0.3298830786487332  0.3418169632323855  0.5932107861899762
  0.3330976855884655  0.6609914693843749  0.4095392598298390
  0.9943561503929194  0.1780950887678764  0.4277560002736424
  0.6683272755074636  0.6607682112994318  0.4188599541109020
  0.6755274830622949  0.1607015346056955  0.5902537159417288
  0.4980567004762922  0.9904857184935807  0.5863868947923324
  0.9981076032211945  0.6700897728499541  0.5786265791005045
  0.1630106177351693  0.6645909038197086  0.4241162067919955
  0.9990724250954242  0.9959661168989798  0.5849132893165883
  0.6619765279594504  0.3371707133539407  0.5773566311629409
  0.6677557352706297  0.0062930717854085  0.4248065930316141
  0.3277489861853290  0.1710304849533387  0.4313362792039179
  0.0013452030120418  0.6633895534449910  0.4186946546079859
  0.6563458409755351  0.6729493365614573  0.5726886046226388
 
  0.00000000E+00  0.00000000E+00  0.00000000E+00
  0.00000000E+00  0.00000000E+00  0.00000000E+00
  0.00000000E+00  0.00000000E+00  0.00000000E+00
  0.00000000E+00  0.00000000E+00  0.00000000E+00
  0.00000000E+00  0.00000000E+00  0.00000000E+00
  0.00000000E+00  0.00000000E+00  0.00000000E+00
  0.00000000E+00  0.00000000E+00  0.00000000E+00
  0.00000000E+00  0.00000000E+00  0.00000000E+00
  0.00000000E+00  0.00000000E+00  0.00000000E+00
  0.00000000E+00  0.00000000E+00  0.00000000E+00
  0.00000000E+00  0.00000000E+00  0.00000000E+00
  0.00000000E+00  0.00000000E+00  0.00000000E+00
  0.00000000E+00  0.00000000E+00  0.00000000E+00
  0.00000000E+00  0.00000000E+00  0.00000000E+00
  0.00000000E+00  0.00000000E+00  0.00000000E+00
  0.00000000E+00  0.00000000E+00  0.00000000E+00
  0.00000000E+00  0.00000000E+00  0.00000000E+00
  0.00000000E+00  0.00000000E+00  0.00000000E+00
  0.00000000E+00  0.00000000E+00  0.00000000E+00
  0.00000000E+00  0.00000000E+00  0.00000000E+00
  0.00000000E+00  0.00000000E+00  0.00000000E+00
  0.00000000E+00  0.00000000E+00  0.00000000E+00
  0.00000000E+00  0.00000000E+00  0.00000000E+00
  0.00000000E+00  0.00000000E+00  0.00000000E+00
  0.00000000E+00  0.00000000E+00  0.00000000E+00
  0.00000000E+00  0.00000000E+00  0.00000000E+00
  0.00000000E+00  0.00000000E+00  0.00000000E+00
  0.00000000E+00  0.00000000E+00  0.00000000E+00
  0.00000000E+00  0.00000000E+00  0.00000000E+00
  0.00000000E+00  0.00000000E+00  0.00000000E+00
  0.00000000E+00  0.00000000E+00  0.00000000E+00
  0.00000000E+00  0.00000000E+00  0.00000000E+00
  0.00000000E+00  0.00000000E+00  0.00000000E+00
  0.00000000E+00  0.00000000E+00  0.00000000E+00
  0.00000000E+00  0.00000000E+00  0.00000000E+00
  0.00000000E+00  0.00000000E+00  0.00000000E+00
  0.00000000E+00  0.00000000E+00  0.00000000E+00
  0.00000000E+00  0.00000000E+00  0.00000000E+00
  0.00000000E+00  0.00000000E+00  0.00000000E+00
  0.00000000E+00  0.00000000E+00  0.00000000E+00
  0.00000000E+00  0.00000000E+00  0.00000000E+00
  0.00000000E+00  0.00000000E+00  0.00000000E+00
  0.00000000E+00  0.00000000E+00  0.00000000E+00
  0.00000000E+00  0.00000000E+00  0.00000000E+00
  0.00000000E+00  0.00000000E+00  0.00000000E+00
  0.00000000E+00  0.00000000E+00  0.00000000E+00
  0.00000000E+00  0.00000000E+00  0.00000000E+00
  0.00000000E+00  0.00000000E+00  0.00000000E+00
  0.00000000E+00  0.00000000E+00  0.00000000E+00
  0.00000000E+00  0.00000000E+00  0.00000000E+00
  0.00000000E+00  0.00000000E+00  0.00000000E+00
  0.00000000E+00  0.00000000E+00  0.00000000E+00
  0.00000000E+00  0.00000000E+00  0.00000000E+00
  0.00000000E+00  0.00000000E+00  0.00000000E+00
  0.00000000E+00  0.00000000E+00  0.00000000E+00
  0.00000000E+00  0.00000000E+00  0.00000000E+00
  0.00000000E+00  0.00000000E+00  0.00000000E+00
  0.00000000E+00  0.00000000E+00  0.00000000E+00
  0.00000000E+00  0.00000000E+00  0.00000000E+00
  0.00000000E+00  0.00000000E+00  0.00000000E+00
  0.00000000E+00  0.00000000E+00  0.00000000E+00
  0.00000000E+00  0.00000000E+00  0.00000000E+00
  0.00000000E+00  0.00000000E+00  0.00000000E+00
  0.00000000E+00  0.00000000E+00  0.00000000E+00
  0.00000000E+00  0.00000000E+00  0.00000000E+00
  0.00000000E+00  0.00000000E+00  0.00000000E+00
  0.00000000E+00  0.00000000E+00  0.00000000E+00
  0.00000000E+00  0.00000000E+00  0.00000000E+00
  0.00000000E+00  0.00000000E+00  0.00000000E+00
  0.00000000E+00  0.00000000E+00  0.00000000E+00
  0.00000000E+00  0.00000000E+00  0.00000000E+00
  0.00000000E+00  0.00000000E+00  0.00000000E+00
  0.00000000E+00  0.00000000E+00  0.00000000E+00
  0.00000000E+00  0.00000000E+00  0.00000000E+00
  0.00000000E+00  0.00000000E+00  0.00000000E+00
  0.00000000E+00  0.00000000E+00  0.00000000E+00
  0.00000000E+00  0.00000000E+00  0.00000000E+00
  0.00000000E+00  0.00000000E+00  0.00000000E+00
  0.00000000E+00  0.00000000E+00  0.00000000E+00
  0.00000000E+00  0.00000000E+00  0.00000000E+00
  0.00000000E+00  0.00000000E+00  0.00000000E+00
  0.00000000E+00  0.00000000E+00  0.00000000E+00
  0.00000000E+00  0.00000000E+00  0.00000000E+00
  0.00000000E+00  0.00000000E+00  0.00000000E+00
  0.00000000E+00  0.00000000E+00  0.00000000E+00
  0.00000000E+00  0.00000000E+00  0.00000000E+00
  0.00000000E+00  0.00000000E+00  0.00000000E+00
  0.00000000E+00  0.00000000E+00  0.00000000E+00
  0.00000000E+00  0.00000000E+00  0.00000000E+00
  0.00000000E+00  0.00000000E+00  0.00000000E+00
  0.00000000E+00  0.00000000E+00  0.00000000E+00
  0.00000000E+00  0.00000000E+00  0.00000000E+00
  0.00000000E+00  0.00000000E+00  0.00000000E+00
  0.00000000E+00  0.00000000E+00  0.00000000E+00
  0.00000000E+00  0.00000000E+00  0.00000000E+00
  0.00000000E+00  0.00000000E+00  0.00000000E+00
  0.00000000E+00  0.00000000E+00  0.00000000E+00
  0.00000000E+00  0.00000000E+00  0.00000000E+00
  0.00000000E+00  0.00000000E+00  0.00000000E+00
  0.00000000E+00  0.00000000E+00  0.00000000E+00
  0.00000000E+00  0.00000000E+00  0.00000000E+00
  0.00000000E+00  0.00000000E+00  0.00000000E+00
  0.00000000E+00  0.00000000E+00  0.00000000E+00
  0.00000000E+00  0.00000000E+00  0.00000000E+00
  0.00000000E+00  0.00000000E+00  0.00000000E+00
  0.00000000E+00  0.00000000E+00  0.00000000E+00
  0.00000000E+00  0.00000000E+00  0.00000000E+00
  0.00000000E+00  0.00000000E+00  0.00000000E+00
