Nb18 Re18 Te36 S36                      
   1.00000000000000     
    10.0767000953208576  -18.1758352167757415    0.0000000000000000
    20.0619854650133149   -0.0505231026214075    0.0000000000000000
     0.0000000000000000    0.0000000000000000   23.3715000000000011
   Re   Nb   S    Te
    18    18    36    36
Direct
  0.0579316784460374  0.3940348381165510  0.4959473314219991
  0.7287399483480769  0.0631164827156088  0.5025065850600370
  0.5631489877118913  0.3855836473867097  0.5066010692396820
  0.5560127939033918  0.5542808972119313  0.5042425281999126
  0.3941504122667492  0.3810261035486657  0.5008203652366595
  0.3800190596243925  0.8977113866283299  0.4983075983894583
  0.2211530307782284  0.2221846364802670  0.4994774987282151
  0.2226122035627774  0.5522260280653976  0.4949376024198479
  0.2262741452970276  0.7167643188980054  0.5012323940659269
  0.8861958160800870  0.2209305355083312  0.4998688436964095
  0.5537312094233277  0.8951616915206638  0.5000774374249417
  0.2222755519266475  0.0583025942310276  0.4953907195191989
  0.8909542942003371  0.7227986812293714  0.4929240085732904
  0.0406800706127551  0.9011400864491133  0.5002592223400860
  0.8810303120853659  0.3893229873800806  0.4981577010862507
  0.5525630087755707  0.0582299114690088  0.5053302295774204
  0.7213549330325169  0.5525794700799279  0.4978682558550050
  0.8857750603033868  0.0596670179745564  0.5011036311795984
  0.7280676517194248  0.8853539688668669  0.4995285856783134
  0.5597599386579964  0.7112442546495956  0.4968058208328342
  0.2264297640530657  0.3860207799273851  0.4961757834237540
  0.8965846411133486  0.5482549595818458  0.4924359474315561
  0.5653642931233633  0.2167219700028329  0.5052921662734783
  0.7195625888726203  0.3875783082730327  0.5016639928802427
  0.0557130856039902  0.5547169007174675  0.4906312801943924
  0.3930106334533640  0.2190100530462619  0.5034383148657410
  0.0477436873955707  0.0563657210209754  0.4985895587178745
  0.0580069053112663  0.2186184015086679  0.4966694137032464
  0.0517485075671450  0.7289827282226063  0.4954523721413763
  0.8857959350702707  0.8962100504655600  0.5010449087687383
  0.7253322874241550  0.2217756465301869  0.5016895219239307
  0.7264977904280331  0.7148406643170540  0.4928990091870599
  0.3855725350310344  0.0533664382779355  0.5025662635740008
  0.3958990080043339  0.5505541737402941  0.5049291282342157
  0.3952220827209499  0.7176198107338352  0.5025254520822989
  0.2217723248742661  0.8949685521361711  0.4972288040842138
  0.9907330724697765  0.0054031769844697  0.5656532933868782
  0.5046055407790416  0.1639346875381179  0.4417209525230306
  0.0051399790035619  0.4946262928668624  0.4263619354728600
  0.8324109226980400  0.0074808616794767  0.5666441820804333
  0.3345808429345414  0.3326328697882485  0.5626541934751206
  0.1646402381244913  0.5014808716214655  0.5562168009786187
  0.5017000533504140  0.6559943431641283  0.4350302482139428
  0.6693002330906204  0.3300907887482352  0.5698804563823168
  0.6751373721079974  0.1651994104437454  0.5700870437520255
  0.0034766729192210  0.5008593727476249  0.5596120046997974
  0.3357369751412755  0.6636690571272453  0.4415240062923793
  0.3317846151552277  0.1667299513884335  0.4400914981176939
  0.4990308298006419  0.0055116822563081  0.4414176132437730
  0.8277824502301501  0.4967637307473737  0.4361545196479696
  0.8304431430502315  0.0083680765764609  0.4362152760631360
  0.6607441210333519  0.5008838532641706  0.4398059732336848
  0.3296383407787413  0.0026151201479003  0.4331743496489440
  0.5066479158535264  0.3317185537330818  0.4444626911477418
  0.9929468096820410  0.8445547841520512  0.4351115301237344
  0.5046350739232465  0.6624639997532701  0.5676115250160603
  0.9878914217874762  0.0053584041432507  0.4343422665118498
  0.8329728061204322  0.3302328117202512  0.5612633891726173
  0.8404949888380232  0.6622869942712202  0.5533413522911138
  0.8354637032328326  0.1667545136674856  0.5657439306512249
  0.9921151182947912  0.1685124251243816  0.4359897408537742
  0.1685481021755548  0.1646080616435538  0.5587844909678860
  0.1675815202912869  0.3308386781049048  0.4365661492327166
  0.5078777199242249  0.4932753951756364  0.4433445391908144
  0.6707747790773182  0.1671252244264646  0.4359123554983962
  0.1637097847552376  0.0082193617268756  0.5584594421677572
  0.9977750387307165  0.6665004657067489  0.5545856182290355
  0.8347955127542399  0.8365564024963257  0.4349126040848779
  0.8348296701802111  0.1653562700232724  0.4357411721343888
  0.6622296370429965  0.3340759487080923  0.4368362182890878
  0.6710757942696413  0.6618421868131021  0.5586275047137347
  0.3233956381136502  0.0021761206820103  0.5635739345156059
  0.3313014779985881  0.6679296038458522  0.5862633351803308
  0.3445096752866488  0.3241611276517233  0.4155059551844563
  0.6615771250862922  0.8381209176699166  0.4174007525007185
  0.6668165217693015  0.5032867534529116  0.5833537933656299
  0.8313991276714233  0.5013788757422102  0.5776696405456778
  0.1655728813028162  0.6623915285022773  0.5756190502603298
  0.3322909325275276  0.8377632147279215  0.5807681284480781
  0.1710586914734749  0.1682832171538076  0.4145616283438356
  0.5025879992874859  0.1648608795129207  0.5889985741933239
  0.9964510006548587  0.6737492354937757  0.4094615540711587
  0.5008598923400240  0.3332043462389214  0.5846538693016279
  0.1714411610931945  0.6664366565111408  0.4183155988862121
  0.4958851669913973  0.8382612557895452  0.4230286799360846
  0.9946210499178717  0.1688945715317312  0.5822214290139384
  0.1644780695478689  0.3354674908763096  0.5793481453425157
  0.8384253652695201  0.6642354196569058  0.4097239775018284
  0.9969898793135543  0.8382911120649634  0.5834231619548892
  0.3261336354733662  0.1685204864875297  0.5849105918787531
  0.6674076339816198  0.8265102375894173  0.5775975603935691
  0.6687330940062485  0.6564254672285819  0.4114869978185772
  0.3370558812652453  0.8296870902093956  0.4179620719900210
  0.1607558255884142  0.0072699396064369  0.4135449737171304
  0.1709308836917223  0.4968366142690849  0.4098921888114643
  0.5002215858094435  0.9981846849062905  0.5851098311687611
  0.8296195109819873  0.3303524638757283  0.4171175936224413
  0.9946654164261651  0.3400215783487941  0.4207925049742742
  0.9975512066686890  0.3396778229960489  0.5729534687068641
  0.3285916032721162  0.4938890466724990  0.5775195680416043
  0.1595494943679146  0.8387353105506911  0.5742649673790314
  0.8391940728930951  0.8242010052363858  0.5817454888596076
  0.5072607362366474  0.4959499076702863  0.5874429032542676
  0.6711038808313956  0.0029868381356010  0.5780959600960965
  0.6647828580683708  0.0092768616677944  0.4266414684006253
  0.4964564348427813  0.8333057907320266  0.5733705681200878
  0.3409119878786367  0.4939414698114483  0.4219751819363214
  0.1574676256667616  0.8357357315087592  0.4251546887835875
 
  0.00000000E+00  0.00000000E+00  0.00000000E+00
  0.00000000E+00  0.00000000E+00  0.00000000E+00
  0.00000000E+00  0.00000000E+00  0.00000000E+00
  0.00000000E+00  0.00000000E+00  0.00000000E+00
  0.00000000E+00  0.00000000E+00  0.00000000E+00
  0.00000000E+00  0.00000000E+00  0.00000000E+00
  0.00000000E+00  0.00000000E+00  0.00000000E+00
  0.00000000E+00  0.00000000E+00  0.00000000E+00
  0.00000000E+00  0.00000000E+00  0.00000000E+00
  0.00000000E+00  0.00000000E+00  0.00000000E+00
  0.00000000E+00  0.00000000E+00  0.00000000E+00
  0.00000000E+00  0.00000000E+00  0.00000000E+00
  0.00000000E+00  0.00000000E+00  0.00000000E+00
  0.00000000E+00  0.00000000E+00  0.00000000E+00
  0.00000000E+00  0.00000000E+00  0.00000000E+00
  0.00000000E+00  0.00000000E+00  0.00000000E+00
  0.00000000E+00  0.00000000E+00  0.00000000E+00
  0.00000000E+00  0.00000000E+00  0.00000000E+00
  0.00000000E+00  0.00000000E+00  0.00000000E+00
  0.00000000E+00  0.00000000E+00  0.00000000E+00
  0.00000000E+00  0.00000000E+00  0.00000000E+00
  0.00000000E+00  0.00000000E+00  0.00000000E+00
  0.00000000E+00  0.00000000E+00  0.00000000E+00
  0.00000000E+00  0.00000000E+00  0.00000000E+00
  0.00000000E+00  0.00000000E+00  0.00000000E+00
  0.00000000E+00  0.00000000E+00  0.00000000E+00
  0.00000000E+00  0.00000000E+00  0.00000000E+00
  0.00000000E+00  0.00000000E+00  0.00000000E+00
  0.00000000E+00  0.00000000E+00  0.00000000E+00
  0.00000000E+00  0.00000000E+00  0.00000000E+00
  0.00000000E+00  0.00000000E+00  0.00000000E+00
  0.00000000E+00  0.00000000E+00  0.00000000E+00
  0.00000000E+00  0.00000000E+00  0.00000000E+00
  0.00000000E+00  0.00000000E+00  0.00000000E+00
  0.00000000E+00  0.00000000E+00  0.00000000E+00
  0.00000000E+00  0.00000000E+00  0.00000000E+00
  0.00000000E+00  0.00000000E+00  0.00000000E+00
  0.00000000E+00  0.00000000E+00  0.00000000E+00
  0.00000000E+00  0.00000000E+00  0.00000000E+00
  0.00000000E+00  0.00000000E+00  0.00000000E+00
  0.00000000E+00  0.00000000E+00  0.00000000E+00
  0.00000000E+00  0.00000000E+00  0.00000000E+00
  0.00000000E+00  0.00000000E+00  0.00000000E+00
  0.00000000E+00  0.00000000E+00  0.00000000E+00
  0.00000000E+00  0.00000000E+00  0.00000000E+00
  0.00000000E+00  0.00000000E+00  0.00000000E+00
  0.00000000E+00  0.00000000E+00  0.00000000E+00
  0.00000000E+00  0.00000000E+00  0.00000000E+00
  0.00000000E+00  0.00000000E+00  0.00000000E+00
  0.00000000E+00  0.00000000E+00  0.00000000E+00
  0.00000000E+00  0.00000000E+00  0.00000000E+00
  0.00000000E+00  0.00000000E+00  0.00000000E+00
  0.00000000E+00  0.00000000E+00  0.00000000E+00
  0.00000000E+00  0.00000000E+00  0.00000000E+00
  0.00000000E+00  0.00000000E+00  0.00000000E+00
  0.00000000E+00  0.00000000E+00  0.00000000E+00
  0.00000000E+00  0.00000000E+00  0.00000000E+00
  0.00000000E+00  0.00000000E+00  0.00000000E+00
  0.00000000E+00  0.00000000E+00  0.00000000E+00
  0.00000000E+00  0.00000000E+00  0.00000000E+00
  0.00000000E+00  0.00000000E+00  0.00000000E+00
  0.00000000E+00  0.00000000E+00  0.00000000E+00
  0.00000000E+00  0.00000000E+00  0.00000000E+00
  0.00000000E+00  0.00000000E+00  0.00000000E+00
  0.00000000E+00  0.00000000E+00  0.00000000E+00
  0.00000000E+00  0.00000000E+00  0.00000000E+00
  0.00000000E+00  0.00000000E+00  0.00000000E+00
  0.00000000E+00  0.00000000E+00  0.00000000E+00
  0.00000000E+00  0.00000000E+00  0.00000000E+00
  0.00000000E+00  0.00000000E+00  0.00000000E+00
  0.00000000E+00  0.00000000E+00  0.00000000E+00
  0.00000000E+00  0.00000000E+00  0.00000000E+00
  0.00000000E+00  0.00000000E+00  0.00000000E+00
  0.00000000E+00  0.00000000E+00  0.00000000E+00
  0.00000000E+00  0.00000000E+00  0.00000000E+00
  0.00000000E+00  0.00000000E+00  0.00000000E+00
  0.00000000E+00  0.00000000E+00  0.00000000E+00
  0.00000000E+00  0.00000000E+00  0.00000000E+00
  0.00000000E+00  0.00000000E+00  0.00000000E+00
  0.00000000E+00  0.00000000E+00  0.00000000E+00
  0.00000000E+00  0.00000000E+00  0.00000000E+00
  0.00000000E+00  0.00000000E+00  0.00000000E+00
  0.00000000E+00  0.00000000E+00  0.00000000E+00
  0.00000000E+00  0.00000000E+00  0.00000000E+00
  0.00000000E+00  0.00000000E+00  0.00000000E+00
  0.00000000E+00  0.00000000E+00  0.00000000E+00
  0.00000000E+00  0.00000000E+00  0.00000000E+00
  0.00000000E+00  0.00000000E+00  0.00000000E+00
  0.00000000E+00  0.00000000E+00  0.00000000E+00
  0.00000000E+00  0.00000000E+00  0.00000000E+00
  0.00000000E+00  0.00000000E+00  0.00000000E+00
  0.00000000E+00  0.00000000E+00  0.00000000E+00
  0.00000000E+00  0.00000000E+00  0.00000000E+00
  0.00000000E+00  0.00000000E+00  0.00000000E+00
  0.00000000E+00  0.00000000E+00  0.00000000E+00
  0.00000000E+00  0.00000000E+00  0.00000000E+00
  0.00000000E+00  0.00000000E+00  0.00000000E+00
  0.00000000E+00  0.00000000E+00  0.00000000E+00
  0.00000000E+00  0.00000000E+00  0.00000000E+00
  0.00000000E+00  0.00000000E+00  0.00000000E+00
  0.00000000E+00  0.00000000E+00  0.00000000E+00
  0.00000000E+00  0.00000000E+00  0.00000000E+00
  0.00000000E+00  0.00000000E+00  0.00000000E+00
  0.00000000E+00  0.00000000E+00  0.00000000E+00
  0.00000000E+00  0.00000000E+00  0.00000000E+00
  0.00000000E+00  0.00000000E+00  0.00000000E+00
  0.00000000E+00  0.00000000E+00  0.00000000E+00
  0.00000000E+00  0.00000000E+00  0.00000000E+00
