C 
 1.0000000000000000
    16.3065770000000008    0.0000000000000000    0.0000000000000000
     0.0000000000000000    9.3732839999999999    0.0000000000000000
     0.0000000000000000    0.0000000000000000   35.5300879999999992
 C  
 120
Cartesian
 13.1366999999999994  0.2858800000000000 11.8686799999999995
 13.9178400000000000  0.7250799999999999 13.0091599999999996
 13.2773299999999992  1.5409900000000001 14.0352099999999993
 11.6186500000000006  1.5244599999999999 14.0681200000000004
 10.9523799999999998  0.7726600000000000 12.9990500000000004
 11.7134499999999999  0.2771700000000000 11.9136199999999999
 11.0409500000000005  8.4945400000000006 11.3197299999999998
  9.9081700000000001  8.2481000000000009 12.1186799999999995
  9.8259799999999995  9.2765100000000000 13.1226099999999999
 11.6835299999999993  3.1500400000000002 14.0311400000000006
 13.3307900000000004  3.1395400000000002 14.0065200000000001
 13.6162200000000002  3.9009299999999998 12.7639700000000005
 12.4531799999999997  4.2565000000000000 12.1173300000000008
 11.2664600000000004  3.9170300000000000 12.8123299999999993
 10.0872600000000006  4.7317700000000000 12.6414299999999997
  9.0550599999999992  5.0622600000000002 13.7210000000000001
  9.9023500000000002  4.8065300000000004 14.9404800000000009
 11.0672499999999996  3.9985599999999999 15.1258099999999995
 11.7830499999999994  4.3783500000000002 16.2297200000000004
 13.1963799999999996  4.3705699999999998 16.2590299999999992
 13.9363200000000003  3.9509599999999998 15.1278299999999994
 15.0835699999999999  4.7944599999999999 14.9813500000000008
 14.9968800000000009  5.7744000000000000 15.9852299999999996
 15.4589400000000001  7.1116799999999998 15.8063099999999999
 14.6636000000000006  8.2347199999999994 16.2290300000000016
 14.7272400000000001  9.3444400000000005 15.3862799999999993
 13.5614200000000000  7.9721099999999998 17.0448099999999982
 13.1723900000000000  6.6390000000000002 17.3219899999999996
 13.8238299999999992  5.5313200000000000 16.7605000000000004
 11.7448099999999993  6.6489200000000004 17.3279500000000013
 11.3142999999999994  8.0137300000000007 17.1069199999999988
 12.4299800000000005  8.8549799999999994 16.9101099999999995
 13.6110000000000007  0.7915300000000000 15.2503100000000007
 12.4651899999999998  0.5282500000000000 16.0161300000000004
 11.2692399999999999  0.7904300000000000 15.3275199999999998
 10.1525499999999997  9.3311799999999998 15.4748099999999997
 10.1864399999999993  8.2014700000000005 16.3163599999999995
  9.1145399999999999  8.9541000000000004 14.3974100000000007
  8.8903300000000005  7.4583700000000004 14.5859199999999998
  9.4876500000000004  7.0528000000000004 15.7992799999999995
  8.8382199999999997  6.5797699999999999 13.5555800000000009
  9.4250900000000009  6.9414699999999998 12.3104099999999992
  9.9583600000000008  5.7326100000000002 15.9838100000000001
 11.1048299999999998  5.5281900000000004 16.7491300000000010
 10.1538500000000003  5.8455000000000004 11.8512599999999999
 11.3140699999999992  6.0835299999999997 11.0488700000000009
 11.7277600000000000  7.4029299999999996 10.8269300000000008
 13.1356199999999994  7.4280200000000001 10.7621900000000004
 13.7886000000000006  8.5113099999999999 11.3777100000000004
 14.9524299999999997  8.2607700000000008 12.1268600000000006
 12.4650700000000008  5.3254900000000003 11.1801700000000004
 13.5887200000000004  6.1528400000000003 10.9690200000000004
 14.7136300000000002  5.8640400000000001 11.7334499999999995
 14.7440999999999995  4.7708300000000001 12.5878399999999999
 15.7998999999999992  5.0546100000000003 13.7235499999999995
 15.9865100000000009  6.5971299999999999 13.5285899999999994
 16.0533199999999994  7.4849300000000003 14.5738400000000006
 15.7791499999999996  9.0470199999999998 14.3748100000000001
 15.0403699999999994  9.2612299999999994 13.1066500000000001
 15.4645100000000006  6.9441600000000001 12.2772199999999998
  4.9863400000000002  9.1194500000000005 11.9506300000000003
  5.7544899999999997  8.6082500000000000 13.0219600000000000
  5.1699500000000000  7.8038100000000004 14.1425000000000001
  3.4562800000000000  7.8240800000000004 14.1425599999999996
  2.8467300000000000  8.6243499999999997 13.0639000000000003
  3.5960600000000000  9.1029800000000005 11.9768200000000000
  2.9043899999999998  0.8623300000000000 11.4018499999999996
  1.7179599999999999  1.0864000000000000 12.1565999999999992
  1.7035499999999999  0.0938800000000000 13.2077200000000001
  3.4974500000000002  6.2057000000000002 14.0835699999999999
  5.1411400000000000  6.1842600000000001 14.1008300000000002
  5.5174300000000001  5.3566900000000004 12.8968299999999996
  4.3362100000000003  5.0567599999999997 12.1980299999999993
  3.1329799999999999  5.3754799999999996 12.8770500000000006
  1.9508300000000001  4.6356299999999999 12.7455999999999996
  0.9338200000000000  4.3351300000000004 13.8044600000000006
  1.7255000000000000  4.5607600000000001 15.0504899999999999
  2.8748000000000000  5.3829000000000002 15.2041500000000003
  3.6051199999999999  4.9021499999999998 16.3157400000000017
  5.0107900000000001  4.9450000000000003 16.3186700000000009
  5.7756699999999999  5.3947599999999998 15.2092299999999998
  6.8630399999999998  4.4860400000000000 15.0430200000000003
  6.8361700000000001  3.5372499999999998 16.0300800000000017
  7.3335400000000002  2.2757600000000000 15.8185900000000004
  6.5581600000000000  1.2050600000000000 16.3474100000000000
  6.6103800000000001  0.0801900000000000 15.4733900000000002
  5.4189200000000000  1.4688500000000000 17.0481300000000005
  5.0028800000000002  2.7979699999999998 17.3993800000000007
  5.6840099999999998  3.8916900000000001 16.8813500000000012
  3.5600900000000002  2.7258000000000000 17.4330900000000000
  3.1205300000000000  1.3221000000000001 17.2505799999999994
  4.3154399999999997  0.5990900000000000 17.0293300000000016
  5.4828900000000003  8.6006400000000003 15.3468699999999991
  4.3069899999999999  8.9182900000000007 16.0782799999999995
  3.1179999999999999  8.5899599999999996 15.3677600000000005
  1.9846600000000001  0.0595900000000000 15.4648400000000006
  2.0439099999999999  1.1313000000000000 16.3773499999999999
  0.9089900000000000  0.3589400000000000 14.3879000000000001
  0.7453700000000000  1.8759300000000001 14.6395099999999996
  1.3363300000000000  2.2578399999999998 15.8187700000000007
  0.7206900000000001  2.7952900000000001 13.6377699999999997
  1.2622400000000000  2.3959999999999999 12.4249500000000008
  1.7650900000000000  3.5930700000000000 16.0682699999999983
  2.8965299999999998  3.8046400000000000 16.8761599999999987
  1.9712600000000000  3.5473800000000000 11.8570300000000000
  3.1145000000000000  3.2722600000000002 11.1000499999999995
  3.5435900000000000  1.9640100000000000 10.8617799999999995
  4.9729200000000002  1.9421999999999999 10.8043200000000006
  5.6474900000000003  0.8621500000000000 11.3504299999999994
  6.8395299999999999  1.0576399999999999 12.0688899999999997
  4.2736000000000001  4.0407299999999999 11.2456800000000001
  5.4271700000000003  3.2661099999999998 10.9943700000000000
  6.5837300000000001  3.4550500000000000 11.7376199999999997
  6.6562099999999997  4.5593300000000001 12.6490399999999994
  7.6558200000000003  4.3100899999999998 13.7902000000000005
  7.9030300000000002  2.7879499999999999 13.5317799999999995
  7.8517400000000004  1.8735100000000000 14.5392700000000001
  7.6496500000000003  0.3613900000000000 14.3713300000000004
  6.8724800000000004  0.1187500000000000 13.1455400000000004
  7.2959699999999996  2.3577800000000000 12.3264700000000005
