C 
 1.0000000000000000
    15.8126289999999994    0.0000000000000000    0.0000000000000000
     0.0000000000000000    9.1777460000000008    0.0000000000000000
     0.0000000000000000    0.0000000000000000   34.5159499999999966
 C  
 120
Cartesian
 12.7866900000000001  0.2869000000000000 11.4553399999999996
 13.4867299999999997  0.7228900000000000 12.6148100000000003
 12.8428100000000001  1.5201199999999999 13.6948100000000004
 11.2447300000000006  1.5287800000000000 13.6976499999999994
 10.6505500000000008  0.7046800000000000 12.6134500000000003
 11.4138099999999998  0.2312300000000000 11.4979700000000005
 10.7123000000000008  8.3354999999999997 10.9215699999999991
  9.5491700000000002  8.1006800000000005 11.6875900000000001
  9.5144400000000005  9.0908899999999999 12.7012199999999993
 11.2248400000000004  3.0719599999999998 13.6533700000000007
 12.8745499999999993  3.0660799999999999 13.6782299999999992
 13.2349599999999992  3.7998500000000002 12.4162900000000000
 12.0704100000000007  4.0992800000000003 11.6814599999999995
 10.8965599999999991  3.8105699999999998 12.3963000000000001
  9.7768499999999996  4.6013799999999998 12.2413000000000007
  8.7534700000000001  4.9328900000000004 13.3152200000000001
  9.4633000000000003  4.6703299999999999 14.6066800000000008
 10.5955399999999997  3.8590700000000000 14.7438800000000008
 11.3011900000000001  4.2841100000000001 15.9027200000000004
 12.6828599999999998  4.3081399999999999 15.9020499999999991
 13.4283300000000008  3.8654600000000001 14.7765500000000003
 14.5353800000000000  4.6998300000000004 14.6804600000000001
 14.5158600000000000  5.6859299999999999 15.7195199999999993
 14.9196200000000001  6.9864499999999996 15.4647400000000008
 14.2751199999999994  8.0973699999999997 16.0345000000000013
 14.3308400000000002  0.0501200000000000 15.1716999999999995
 13.1314200000000003  7.8330599999999997 16.8253500000000003
 12.6839300000000001  6.5008600000000003 17.0589699999999986
 13.3399599999999996  5.4339599999999999 16.4792300000000012
 11.2531499999999998  6.5195499999999997 17.0468499999999992
 10.8299099999999999  7.8392400000000002 16.7873200000000011
 12.0028299999999994  8.6549399999999999 16.6369399999999992
 13.1683599999999998  0.7983200000000000 14.9574499999999997
 12.0146599999999992  0.4796800000000000 15.6817799999999998
 10.8185300000000009  0.7728800000000000 14.9307499999999997
  9.6684400000000004  9.1697600000000001 15.0805399999999992
  9.7281499999999994  8.0798299999999994 15.9602000000000004
  8.7160399999999996  8.8640899999999991 13.9596699999999991
  8.5375200000000007  7.3457999999999997 14.1677199999999992
  9.0314999999999994  6.9727499999999996 15.4161699999999993
  8.5750499999999992  6.4424700000000001 13.1329600000000006
  9.0722199999999997  6.8260300000000003 11.9032999999999998
  9.4990199999999998  5.6720600000000001 15.6031499999999994
 10.6117399999999993  5.4164500000000002 16.4507100000000008
  9.8264499999999995  5.7026599999999998 11.3635300000000008
 10.9403000000000006  5.9540499999999996 10.5731000000000002
 11.3879699999999993  7.2735700000000003 10.3294200000000007
 12.7973199999999991  7.2714900000000000 10.3119300000000003
 13.4660299999999999  8.3196600000000007 10.9139800000000005
 14.5853900000000003  8.1022700000000007 11.7447300000000006
 12.0818100000000008  5.1181099999999997 10.7392599999999998
 13.2337699999999998  5.9283799999999998 10.5641599999999993
 14.3217300000000005  5.7066800000000004 11.3886500000000002
 14.3397699999999997  4.6421000000000001 12.2894799999999993
 15.2948100000000000  4.9701300000000002 13.4317700000000002
 15.4657400000000003  6.4381399999999998 13.2549100000000006
 15.4859399999999994  7.3511300000000004 14.2694500000000009
 15.3191500000000005  8.8469999999999995 14.0408899999999992
 14.5700400000000005  9.0624400000000005 12.8020099999999992
 14.9900400000000005  6.8139000000000003 12.0045199999999994
  4.7828600000000003  8.8750499999999999 11.4568100000000008
  5.4940400000000000  8.4925300000000004 12.5906800000000008
  4.9446399999999997  7.6632499999999997 13.6802499999999991
  3.3298299999999998  7.6892600000000000 13.6777899999999999
  2.6675599999999999  8.4143699999999999 12.5716900000000003
  3.3798300000000001  8.8551900000000003 11.4369200000000006
  2.7237499999999999  0.8127400000000000 10.8599399999999999
  1.5953900000000001  1.0721200000000000 11.6650700000000001
  1.6018300000000001  0.0929900000000000 12.7163500000000003
  3.3630300000000002  6.0843100000000003 13.7019800000000007
  4.9611599999999996  6.0911299999999997 13.6341599999999996
  5.3002200000000004  5.3752399999999998 12.3494499999999992
  4.1420800000000000  5.1093500000000001 11.6454299999999993
  2.9789599999999998  5.3691300000000002 12.4253900000000002
  1.8374600000000001  4.6020599999999998 12.2793299999999999
  0.8529200000000000  4.2820799999999997 13.3631499999999992
  1.6170700000000000  4.4615999999999998 14.6556800000000003
  2.7489100000000000  5.2959699999999996 14.7965099999999996
  3.4824799999999998  4.8684799999999999 15.9158700000000000
  4.8779000000000003  4.8663600000000002 15.8854600000000001
  5.5784700000000003  5.3152299999999997 14.7417899999999999
  6.6727900000000000  4.4911799999999999 14.5452999999999992
  6.6585299999999998  3.5142600000000002 15.5564599999999995
  7.0422000000000002  2.1997100000000001 15.3336299999999994
  6.3796400000000002  1.1307600000000000 15.9401700000000002
  6.4354800000000001  0.0324600000000000 15.0648099999999996
  5.2758900000000004  1.3822700000000001 16.7982599999999991
  4.8743299999999996  2.7277300000000002 17.0378000000000007
  5.5798699999999997  3.7670499999999998 16.4284099999999995
  3.4308800000000002  2.7033700000000001 17.0475999999999992
  3.0239400000000001  1.3668000000000000 16.7980400000000003
  4.1488500000000004  0.5605800000000000 16.6302899999999987
  5.3279600000000000  8.3944200000000002 14.9612599999999993
  4.1582600000000003  8.6722999999999999 15.6778899999999997
  2.9830299999999998  8.3916199999999996 14.9374500000000001
  1.8959999999999999  0.0307200000000000 15.0877499999999998
  1.9072300000000000  1.0816600000000001 15.9872099999999993
  0.8881000000000000  0.3862300000000000 13.9765200000000007
  0.7353800000000000  1.8687400000000001 14.1730099999999997
  1.1846600000000000  2.2005699999999999 15.4607299999999999
  0.6739000000000001  2.7659600000000002 13.1451499999999992
  1.1671700000000000  2.4028000000000000 11.8872400000000003
  1.6151599999999999  3.5308000000000002 15.6961999999999993
  2.7292800000000002  3.7838599999999998 16.5666100000000007
  1.8744300000000000  3.4937399999999998 11.3666999999999998
  2.9716800000000001  3.2465899999999999 10.5525900000000004
  3.3980899999999998  1.8990600000000000 10.2822099999999992
  4.7901300000000004  1.8788700000000000 10.2656500000000008
  5.4641799999999998  0.8164400000000001 10.8512799999999991
  6.5825899999999997  1.0816300000000001 11.6356900000000003
  4.1154299999999999  4.0712299999999999 10.6857799999999994
  5.2260700000000000  3.1973400000000001 10.5759600000000002
  6.3900699999999997  3.4694600000000002 11.3030200000000001
  6.4319400000000000  4.5709200000000001 12.1654999999999998
  7.4124600000000003  4.2460699999999996 13.2791899999999998
  7.5703100000000001  2.7519600000000000 13.0873600000000003
  7.5571500000000000  1.8404300000000000 14.1203699999999994
  7.3768799999999999  0.3550000000000000 13.9364799999999995
  6.6319100000000004  0.1411000000000000 12.6833299999999998
  7.0677899999999996  2.3755600000000001 11.8578799999999998
