Nb18 Re18 Te36 S36                      
   1.00000000000000     
    10.0513760248415878  -18.1406868522019735    0.0000000000000000
    20.1385371618932751    0.0205973946072272    0.0000000000000000
     0.0000000000000000    0.0000000000000000   23.3715000000000011
   Re   Nb   S    Te
    18    18    36    36
Direct
  0.0565109696283986  0.8905978114325175  0.5074838678155748
  0.0660209396488649  0.2251052375326598  0.4963253955240776
  0.0673937813718066  0.3768633295680429  0.4968052711360817
  0.8752956653950786  0.5632044424216927  0.4967727649444177
  0.0569216478010256  0.5591121500771560  0.5030657460651965
  0.7234054005291805  0.5619686772790128  0.4986215766438580
  0.7182448317639128  0.7267867791838184  0.5009592434347218
  0.5561180094251442  0.3818056180694865  0.4991430311985794
  0.3912767969054773  0.0551413462489026  0.4941931957116703
  0.3824385454661492  0.5529582116567863  0.5054207100291356
  0.3795518037152749  0.7250105295510608  0.5038643753938348
  0.2233594951452932  0.0662634480300023  0.4974516277810241
  0.2188774378736981  0.2251393322873946  0.4967739915476209
  0.2272647815151401  0.3813612376196238  0.4987933224556412
  0.2224317462730779  0.8777160707129331  0.5019596847671740
  0.5550480801605423  0.2208185142836146  0.4932314292600323
  0.7233455685269368  0.0502309490517208  0.4971011206474721
  0.2160664163021866  0.7257770986405354  0.5066971086067421
  0.5572602193859190  0.7230208756384352  0.5035953673426392
  0.8937681767279310  0.0531362212814868  0.5058693190672875
  0.0615780023020700  0.7210929233852826  0.5093397240548113
  0.0559493503347618  0.0500298738784645  0.5019692428365682
  0.8891501995480842  0.2222338264883469  0.4975223406819432
  0.9000773801461215  0.3891171758785378  0.4938427129923015
  0.8915588916559499  0.7164714779136583  0.5046243327849324
  0.8877067760741900  0.8897095207338349  0.5082808479454637
  0.7235090386181130  0.2186802059350015  0.4977480587777074
  0.7260318464915683  0.3875880165945481  0.4955286700510096
  0.7228966928992994  0.8843182896122758  0.4993353652810552
  0.5574288912252962  0.0575250976941185  0.4890493567310465
  0.5503986531958646  0.5557172729059656  0.5021040322822888
  0.5567599441897355  0.8887810803375175  0.4982161765248773
  0.3905705220003753  0.2281458099469905  0.4941446136011999
  0.3867996612136491  0.3918913327743700  0.5003996932961333
  0.3845511160677929  0.8853889982867188  0.4989910140439006
  0.2272160957998698  0.5605504042036249  0.5048589847740546
  0.0007764381718398  0.9927494231321093  0.4388351790185405
  0.0027163872823521  0.9985712553053149  0.5713564462380595
  0.0115196616054353  0.3296170696241749  0.4304893930138723
  0.0082233569384503  0.3301883065010798  0.5610577706521013
  0.0016238922191852  0.8346681047105261  0.4472189830736826
  0.8365189472952180  0.9971989569484505  0.4417187114447229
  0.8371246276508921  0.1595639643196596  0.4374213442787189
  0.8390051159555263  0.3376349195090014  0.5571618304870344
  0.8312209492354840  0.5010153606140496  0.5583463846067646
  0.8262077319475705  0.6666187821738846  0.5625863983392015
  0.8396035633150267  0.8294832921667828  0.4417241700120405
  0.6629884731945048  0.0011127715684519  0.5571549900765003
  0.6623657360677364  0.1621083584599298  0.5558659039074832
  0.6663872392008995  0.3328246243803745  0.5579904741415519
  0.6645266928679489  0.6723332739637614  0.4393956647188005
  0.6659848270252898  0.8303469861706915  0.4337903367235168
  0.6639177188884636  0.8348337385435517  0.5653574147624163
  0.4995067653488847  0.0065537885664764  0.5553002661237940
  0.5022638924697330  0.1657349974042583  0.5554488020400856
  0.4993129740767712  0.3330080593776511  0.4366605400585253
  0.4978206463025267  0.8320471005681447  0.4378157412205035
  0.3295650467907348  0.3415455612769654  0.4317669780177711
  0.3317917561963140  0.3348428342197701  0.5638559529859699
  0.3312121158463819  0.5043666548627384  0.4361325261317447
  0.3261647129763120  0.6651452177916690  0.4473306751239651
  0.3269986719593820  0.8327979113429506  0.5643241598285351
  0.1683396733614096  0.1700772408717998  0.4318325616496150
  0.1676808362896615  0.1711494873792505  0.5617311574908612
  0.1717788045909849  0.3321301904703253  0.4331568783287510
  0.1709071031120940  0.3302637448616813  0.5618608059119256
  0.1666786147742368  0.6719732543223483  0.4401491746145916
  0.1702273715116477  0.6683164751253436  0.5736027264181982
  0.1593088390859272  0.8317060331329712  0.4418389905124006
  0.1632661526222620  0.8345806709736808  0.5689499570507558
  0.0046213649675018  0.6686065150603805  0.4439129168126423
  0.3341470840385310  0.4974391493474457  0.5707521026381296
  0.0020913072068040  0.6624292685889450  0.5899536108151274
  0.8270156605782085  0.5060278289779051  0.4139414462429728
  0.0070202596754321  0.1653967974282971  0.4193444959018593
  0.0038839939953219  0.1731465064557782  0.5774346040886705
  0.9978264959424819  0.5022550452214457  0.4276612022494312
  0.9932310922102194  0.4978754181914688  0.5697005068549919
  0.0013571308417457  0.8378051961579578  0.5909261405257762
  0.8221537847521718  0.0071830601676820  0.5865276561162006
  0.8311764035432652  0.1728839353588585  0.5863512433488052
  0.8384734071127592  0.3313177678683147  0.4107000302721186
  0.8250290239997392  0.6765487347271970  0.4179550632167538
  0.8277849137693276  0.8301172174635002  0.5890471083002300
  0.6777026621737899  0.9906148539215262  0.4112469565733986
  0.6697877474512257  0.1605264177337562  0.4153405216395812
  0.6625038217321266  0.3337340900779082  0.4144242575556801
  0.6629241552296365  0.5077027760805087  0.4196802584736906
  0.6712088029733966  0.4989099442777171  0.5784739659184649
  0.6710445597780454  0.6669655026398675  0.5837509432912590
  0.4992762914542770  0.9962908683466324  0.4096816408020306
  0.4990838284406913  0.1736849877104492  0.4073417431396268
  0.5054799451579599  0.3219412073801029  0.5795347705485159
  0.4907592096114798  0.4976862060319300  0.4244616851613248
  0.4980764505756985  0.4915740677174861  0.5803160168004163
  0.4908280471547853  0.6718302986873552  0.4228524304657004
  0.4921773911185297  0.6700570900003623  0.5831018946618817
  0.4969274940972523  0.8396981114157657  0.5855176181691043
  0.3323491213038556  0.0005948785970742  0.4177650492009348
  0.3343639792976512  0.0038688179330230  0.5757490003486159
  0.3305826487325473  0.1698946967010758  0.4172321048984677
  0.3344379569652566  0.1683326090111472  0.5730289349667166
  0.3285992801808471  0.6661472328209399  0.5840678292744464
  0.3259092004585781  0.8265402346083127  0.4178855403965132
  0.1709565083636654  0.9951964996318220  0.4247021495821707
  0.1750708617758812  0.9971417325503369  0.5759186984781443
  0.1681499974903219  0.5016408704383823  0.4253173179315470
  0.1696314043481343  0.4941829668953733  0.5790889393029470
 
  0.00000000E+00  0.00000000E+00  0.00000000E+00
  0.00000000E+00  0.00000000E+00  0.00000000E+00
  0.00000000E+00  0.00000000E+00  0.00000000E+00
  0.00000000E+00  0.00000000E+00  0.00000000E+00
  0.00000000E+00  0.00000000E+00  0.00000000E+00
  0.00000000E+00  0.00000000E+00  0.00000000E+00
  0.00000000E+00  0.00000000E+00  0.00000000E+00
  0.00000000E+00  0.00000000E+00  0.00000000E+00
  0.00000000E+00  0.00000000E+00  0.00000000E+00
  0.00000000E+00  0.00000000E+00  0.00000000E+00
  0.00000000E+00  0.00000000E+00  0.00000000E+00
  0.00000000E+00  0.00000000E+00  0.00000000E+00
  0.00000000E+00  0.00000000E+00  0.00000000E+00
  0.00000000E+00  0.00000000E+00  0.00000000E+00
  0.00000000E+00  0.00000000E+00  0.00000000E+00
  0.00000000E+00  0.00000000E+00  0.00000000E+00
  0.00000000E+00  0.00000000E+00  0.00000000E+00
  0.00000000E+00  0.00000000E+00  0.00000000E+00
  0.00000000E+00  0.00000000E+00  0.00000000E+00
  0.00000000E+00  0.00000000E+00  0.00000000E+00
  0.00000000E+00  0.00000000E+00  0.00000000E+00
  0.00000000E+00  0.00000000E+00  0.00000000E+00
  0.00000000E+00  0.00000000E+00  0.00000000E+00
  0.00000000E+00  0.00000000E+00  0.00000000E+00
  0.00000000E+00  0.00000000E+00  0.00000000E+00
  0.00000000E+00  0.00000000E+00  0.00000000E+00
  0.00000000E+00  0.00000000E+00  0.00000000E+00
  0.00000000E+00  0.00000000E+00  0.00000000E+00
  0.00000000E+00  0.00000000E+00  0.00000000E+00
  0.00000000E+00  0.00000000E+00  0.00000000E+00
  0.00000000E+00  0.00000000E+00  0.00000000E+00
  0.00000000E+00  0.00000000E+00  0.00000000E+00
  0.00000000E+00  0.00000000E+00  0.00000000E+00
  0.00000000E+00  0.00000000E+00  0.00000000E+00
  0.00000000E+00  0.00000000E+00  0.00000000E+00
  0.00000000E+00  0.00000000E+00  0.00000000E+00
  0.00000000E+00  0.00000000E+00  0.00000000E+00
  0.00000000E+00  0.00000000E+00  0.00000000E+00
  0.00000000E+00  0.00000000E+00  0.00000000E+00
  0.00000000E+00  0.00000000E+00  0.00000000E+00
  0.00000000E+00  0.00000000E+00  0.00000000E+00
  0.00000000E+00  0.00000000E+00  0.00000000E+00
  0.00000000E+00  0.00000000E+00  0.00000000E+00
  0.00000000E+00  0.00000000E+00  0.00000000E+00
  0.00000000E+00  0.00000000E+00  0.00000000E+00
  0.00000000E+00  0.00000000E+00  0.00000000E+00
  0.00000000E+00  0.00000000E+00  0.00000000E+00
  0.00000000E+00  0.00000000E+00  0.00000000E+00
  0.00000000E+00  0.00000000E+00  0.00000000E+00
  0.00000000E+00  0.00000000E+00  0.00000000E+00
  0.00000000E+00  0.00000000E+00  0.00000000E+00
  0.00000000E+00  0.00000000E+00  0.00000000E+00
  0.00000000E+00  0.00000000E+00  0.00000000E+00
  0.00000000E+00  0.00000000E+00  0.00000000E+00
  0.00000000E+00  0.00000000E+00  0.00000000E+00
  0.00000000E+00  0.00000000E+00  0.00000000E+00
  0.00000000E+00  0.00000000E+00  0.00000000E+00
  0.00000000E+00  0.00000000E+00  0.00000000E+00
  0.00000000E+00  0.00000000E+00  0.00000000E+00
  0.00000000E+00  0.00000000E+00  0.00000000E+00
  0.00000000E+00  0.00000000E+00  0.00000000E+00
  0.00000000E+00  0.00000000E+00  0.00000000E+00
  0.00000000E+00  0.00000000E+00  0.00000000E+00
  0.00000000E+00  0.00000000E+00  0.00000000E+00
  0.00000000E+00  0.00000000E+00  0.00000000E+00
  0.00000000E+00  0.00000000E+00  0.00000000E+00
  0.00000000E+00  0.00000000E+00  0.00000000E+00
  0.00000000E+00  0.00000000E+00  0.00000000E+00
  0.00000000E+00  0.00000000E+00  0.00000000E+00
  0.00000000E+00  0.00000000E+00  0.00000000E+00
  0.00000000E+00  0.00000000E+00  0.00000000E+00
  0.00000000E+00  0.00000000E+00  0.00000000E+00
  0.00000000E+00  0.00000000E+00  0.00000000E+00
  0.00000000E+00  0.00000000E+00  0.00000000E+00
  0.00000000E+00  0.00000000E+00  0.00000000E+00
  0.00000000E+00  0.00000000E+00  0.00000000E+00
  0.00000000E+00  0.00000000E+00  0.00000000E+00
  0.00000000E+00  0.00000000E+00  0.00000000E+00
  0.00000000E+00  0.00000000E+00  0.00000000E+00
  0.00000000E+00  0.00000000E+00  0.00000000E+00
  0.00000000E+00  0.00000000E+00  0.00000000E+00
  0.00000000E+00  0.00000000E+00  0.00000000E+00
  0.00000000E+00  0.00000000E+00  0.00000000E+00
  0.00000000E+00  0.00000000E+00  0.00000000E+00
  0.00000000E+00  0.00000000E+00  0.00000000E+00
  0.00000000E+00  0.00000000E+00  0.00000000E+00
  0.00000000E+00  0.00000000E+00  0.00000000E+00
  0.00000000E+00  0.00000000E+00  0.00000000E+00
  0.00000000E+00  0.00000000E+00  0.00000000E+00
  0.00000000E+00  0.00000000E+00  0.00000000E+00
  0.00000000E+00  0.00000000E+00  0.00000000E+00
  0.00000000E+00  0.00000000E+00  0.00000000E+00
  0.00000000E+00  0.00000000E+00  0.00000000E+00
  0.00000000E+00  0.00000000E+00  0.00000000E+00
  0.00000000E+00  0.00000000E+00  0.00000000E+00
  0.00000000E+00  0.00000000E+00  0.00000000E+00
  0.00000000E+00  0.00000000E+00  0.00000000E+00
  0.00000000E+00  0.00000000E+00  0.00000000E+00
  0.00000000E+00  0.00000000E+00  0.00000000E+00
  0.00000000E+00  0.00000000E+00  0.00000000E+00
  0.00000000E+00  0.00000000E+00  0.00000000E+00
  0.00000000E+00  0.00000000E+00  0.00000000E+00
  0.00000000E+00  0.00000000E+00  0.00000000E+00
  0.00000000E+00  0.00000000E+00  0.00000000E+00
  0.00000000E+00  0.00000000E+00  0.00000000E+00
  0.00000000E+00  0.00000000E+00  0.00000000E+00
  0.00000000E+00  0.00000000E+00  0.00000000E+00
  0.00000000E+00  0.00000000E+00  0.00000000E+00
