POSCAR
1.00
3.1903157348 5.5257885468 0.0000000000
-6.3806307800 0.0000000000 0.0000000000
0.0000000000 0.0000000000 23.1297687334
  Mo S Mo S Mo S Mo S
  1  2  1 2  1 2  1 2
Direct
0.333333333333 0.166666666667 0.500000000000
0.166666666667 0.333333333333 0.432343276548
0.166666666667 0.333333333333 0.567656723452
0.333333333333 0.666666666667 0.500000000000
0.166666666667 0.833333333333 0.432343276548
0.166666666667 0.833333333333 0.567656723452
0.833333333333 0.166666666667 0.500000000000
0.666666666667 0.333333333333 0.432343276548
0.666666666667 0.333333333333 0.567656723452
0.833333333333 0.666666666667 0.500000000000
0.666666666667 0.833333333333 0.432343276548
0.666666666667 0.833333333333 0.567656723452