Mo4 S8
1.0
   3.1903157348000000    5.5257885468000003    0.0000000000000000
  -6.3806307799999997    0.0000000000000000    0.0000000000000000
   0.0000000000000000    0.0000000000000000   23.1297687333999988
Mo S Mo S Mo S Mo S
1 2 1 2 1 2 1 2
direct
   0.3585095831551295    0.1591873827261934    0.5028188860931216 Mo
   0.1471247818574223    0.3068938540669993    0.4379849563438575 S
   0.1314783830086357    0.3220533397284561    0.5686878146182089 S
   0.3584691570606259    0.6984858135575442    0.5032410378663100 Mo
   0.1724548316981039    0.8657570854389313    0.4297943934175132 S
   0.1480177383064108    0.8320959486033604    0.5605897871646489 S
   0.8605571939009717    0.1714644671289516    0.4948467805573900 Mo
   0.6401840332278091    0.3360128628372804    0.4284125572435688 S
   0.6548589716400520    0.3568137453461887    0.5666062907318717 S
   0.8336450066619557    0.6943716774001902    0.4958761530886855 Mo
   0.6568681928033503    0.8019829494000218    0.4363487905829017 S
   0.6733950885846214    0.8177080407926103    0.5743457180084833 S
