Mo4 S8
1.0
   3.1903157348000000    5.5257885468000003    0.0000000000000000
  -6.3806307799999997    0.0000000000000000    0.0000000000000000
   0.0000000000000000    0.0000000000000000   23.1297687333999988
Mo S Mo S Mo S Mo S
1 2 1 2 1 2 1 2
direct
   0.3266017965242966    0.1509332046462626    0.4978868141596557 Mo
   0.1486177231015432    0.3231833303522112    0.4323948901691804 S
   0.1554812431236177    0.3400057207915091    0.5673353516739981 S
   0.3359294923610258    0.6787225763750111    0.4969177506441629 Mo
   0.1753853585249760    0.8476429612866544    0.4349545912533347 S
   0.1601566163210171    0.8447008289522088    0.5676163481446822 S
   0.8456027687713054    0.1755615568950800    0.5030854955580376 Mo
   0.6638217065118631    0.3388875362889102    0.4361545778674256 S
   0.6667101488560330    0.3490073300602421    0.5674376619551069 S
   0.8231189185065002    0.6542912282763431    0.4970475358995732 Mo
   0.6489887395613579    0.8251432416327079    0.4314357679586511 S
   0.6669475892380743    0.8313955198841257    0.5719414490644981 S
