Nb18 Re18 Te36 S36                      
   1.00000000000000     
    10.0317215151767609  -18.1446503941559136    0.0000000000000000
    20.0849502499297543    0.0121451271057801    0.0000000000000000
     0.0000000000000000    0.0000000000000000   23.3715000000000011
   Re   Nb   S    Te
    18    18    36    36
Direct
  0.0409703938881945  0.3951654913958279  0.4981987454894657
  0.7320504050981275  0.0573561360238857  0.5017938734279733
  0.7217650033207428  0.8839581697873661  0.5028698838832355
  0.5631531680899551  0.3886734821781737  0.5054923487244035
  0.5605420111804662  0.5586339258777896  0.5017185774355835
  0.3806979149181619  0.3884586622648074  0.5022419342927096
  0.3805179319722213  0.8916280228507369  0.4948839709930506
  0.2221408087740319  0.2142498654769035  0.4988545635879203
  0.2257832997450734  0.5530752726557872  0.5006190883724254
  0.2256389424043779  0.7192166453888682  0.5005806165348192
  0.8972867284184878  0.2169783055707715  0.5029662024990366
  0.5573789032971402  0.8959504462124310  0.5017114998144887
  0.2204546217190261  0.0571388837141809  0.4923057702781099
  0.0455036326430342  0.8925315164851491  0.4957916580167299
  0.8936819738859337  0.3876931145046854  0.4983974996645593
  0.5496032259606501  0.0545905457511298  0.5055618989496482
  0.7237660809781798  0.5570821441355435  0.4978164761478280
  0.7291702346395269  0.7167188103243004  0.4988377513856569
  0.8898043321902709  0.7174165278018786  0.5005874606805986
  0.5637538058972867  0.7185695488343256  0.4983082822725198
  0.2294574092319187  0.3835485786061149  0.5018922091355492
  0.8881697025686113  0.5555924190136379  0.4970037056009601
  0.5642184562416178  0.2103089318941483  0.5057502345824541
  0.8902940232850154  0.0545456676363649  0.5003345379337352
  0.7219392071849492  0.3936802976889873  0.5059512319607071
  0.0466660005624147  0.5567472191288317  0.5005569674147415
  0.3897056267595071  0.2228034483885249  0.5070519299864049
  0.0549734497127759  0.0566672090210942  0.4948214373249891
  0.0522905760598553  0.2264175662572372  0.4968468402038768
  0.0479492648733032  0.7270145833909343  0.4998891623871570
  0.8896190779473639  0.8924499944464113  0.4997816209081665
  0.7279756212081983  0.2213506891693803  0.5056817812954681
  0.3922240144879834  0.0501367909512616  0.5012746891446023
  0.3872411181602798  0.5538820758250577  0.5020186227509056
  0.3900176707794414  0.7266333423171050  0.4991931081710956
  0.2280312107450506  0.8907417282758672  0.4945845367936748
  0.0027231482306012  0.9983598839345330  0.5602125501529650
  0.8318116699169147  0.6632179249298349  0.5653172168317623
  0.5000498957631707  0.9978961712893666  0.5686684423000858
  0.5005359375317999  0.1617673601279700  0.4431636592241083
  0.1661217131982658  0.1612125185049181  0.5577376555195986
  0.9954560491706981  0.8354883697737103  0.4320487158104465
  0.3325212047306177  0.6675597539746966  0.4393933328309181
  0.6682634003433768  0.3348539746583951  0.4431512138283736
  0.9951169144062546  0.3383463233235720  0.4320009866042815
  0.9966875938908538  0.5002496855880668  0.4316192148722250
  0.3249579074987994  0.9987921757550756  0.5573818407574488
  0.9953698336529881  0.1707054545025350  0.4326882423058327
  0.9975490309276482  0.8391258897415422  0.5651226966797375
  0.8317127488986931  0.0030959309512067  0.4337504491467227
  0.1675677821922856  0.0036446619771079  0.5567833803057950
  0.6758105342269271  0.1605766272663354  0.5678289330782758
  0.5031660848919868  0.0014500050180212  0.4367681851229537
  0.6752503947243901  0.6637359797443418  0.5607737195063326
  0.6665860114736085  0.5027200475132715  0.4398875940106361
  0.3341444657062992  0.1670820025733125  0.4416555231561199
  0.3301285281959289  0.4968950343588492  0.5637096594788301
  0.8321052007515429  0.4986656497399207  0.5590239884942420
  0.6674864851062297  0.8312666581648090  0.4421897190859305
  0.9961410875389026  0.3373407201071800  0.5640267631712041
  0.3378097190964471  0.3264703580780597  0.4365313041159515
  0.8360511490154333  0.1693283133156047  0.4404582755257990
  0.8321576887100574  0.6679606431427682  0.4323913091265366
  0.8342243667188023  0.0013332965651449  0.5675885729367136
  0.3332371538072164  0.8374416335397146  0.5633549891332115
  0.3334585007688413  0.3338018324759404  0.5707580856307365
  0.0047396301864129  0.1646503149326622  0.5642945137919716
  0.9965480628628933  0.6667980929489260  0.4334502832477622
  0.3363202043188885  0.8310932278046647  0.4293013423514507
  0.9935923018984301  0.4994354008590619  0.5655831450743786
  0.9968332951428523  0.6669863503298609  0.5673780323808735
  0.5026848874715527  0.6688320915918361  0.5618498767248179
  0.8339560526977391  0.8326593178522118  0.5820938923680924
  0.5023101971286408  0.5037422531099097  0.5808974879412575
  0.1641671679171147  0.5004718879645609  0.4216191772254334
  0.9948090179201016  0.0005903105007449  0.4122765424510486
  0.6740663245667814  0.6661511439575298  0.4153829389670316
  0.5067078237797592  0.4966484537172903  0.4250674567966928
  0.3263436196042001  0.1641980992999091  0.5851228228793657
  0.3328008075811209  0.0010937979515079  0.4140222762800220
  0.8350723284264234  0.3285243998441114  0.4246099486649785
  0.6698949954039721  0.0017880751436335  0.5764548480958500
  0.1595701422301667  0.8401865574051760  0.5725509840830678
  0.1653327592000944  0.6667794132304503  0.5782261283526332
  0.4957634840377058  0.3361940614642518  0.5786343218300760
  0.8318999168993639  0.4972662362392779  0.4156329073152028
  0.1664324443462009  0.6658220814221476  0.4224366675081534
  0.6682218495244495  0.8260932412958418  0.5809680168306908
  0.1650635078257336  0.0020227154298025  0.4099700169876279
  0.1641323158672656  0.5012640118316495  0.5805982065350619
  0.5020847516605665  0.1606513782395663  0.5907555423981798
  0.1652516858702504  0.1692469437432652  0.4134347634708774
  0.8292207567003321  0.8345154876936380  0.4201998770871123
  0.3315244805931363  0.6713580739341970  0.5841193643217879
  0.8436047730828337  0.1621841691044147  0.5872933406117095
  0.4997496356457552  0.8408865335303918  0.4229348997520695
  0.1567001033672438  0.3313367915827968  0.5744149933619161
  0.6676736222179896  0.3330844619569837  0.5901367532250199
  0.1597718325206485  0.3345950591680925  0.4248427112732307
  0.8430512701469713  0.3307984842014268  0.5802950145130924
  0.6653709270885032  0.0028578616952335  0.4305090517772572
  0.6731422429788979  0.1660318472055577  0.4193931801049752
  0.6666650170288395  0.5119202164454315  0.5842554734420352
  0.5004664124867857  0.3317991443786399  0.4304218495701607
  0.5028972500685254  0.6640243970541079  0.4159437689916523
  0.4920052119252409  0.8406520707505550  0.5738128788279714
  0.3324610506045065  0.4950851782774587  0.4189556024488674
  0.1624177892603585  0.8318534250298961  0.4216541633495399
 
  0.00000000E+00  0.00000000E+00  0.00000000E+00
  0.00000000E+00  0.00000000E+00  0.00000000E+00
  0.00000000E+00  0.00000000E+00  0.00000000E+00
  0.00000000E+00  0.00000000E+00  0.00000000E+00
  0.00000000E+00  0.00000000E+00  0.00000000E+00
  0.00000000E+00  0.00000000E+00  0.00000000E+00
  0.00000000E+00  0.00000000E+00  0.00000000E+00
  0.00000000E+00  0.00000000E+00  0.00000000E+00
  0.00000000E+00  0.00000000E+00  0.00000000E+00
  0.00000000E+00  0.00000000E+00  0.00000000E+00
  0.00000000E+00  0.00000000E+00  0.00000000E+00
  0.00000000E+00  0.00000000E+00  0.00000000E+00
  0.00000000E+00  0.00000000E+00  0.00000000E+00
  0.00000000E+00  0.00000000E+00  0.00000000E+00
  0.00000000E+00  0.00000000E+00  0.00000000E+00
  0.00000000E+00  0.00000000E+00  0.00000000E+00
  0.00000000E+00  0.00000000E+00  0.00000000E+00
  0.00000000E+00  0.00000000E+00  0.00000000E+00
  0.00000000E+00  0.00000000E+00  0.00000000E+00
  0.00000000E+00  0.00000000E+00  0.00000000E+00
  0.00000000E+00  0.00000000E+00  0.00000000E+00
  0.00000000E+00  0.00000000E+00  0.00000000E+00
  0.00000000E+00  0.00000000E+00  0.00000000E+00
  0.00000000E+00  0.00000000E+00  0.00000000E+00
  0.00000000E+00  0.00000000E+00  0.00000000E+00
  0.00000000E+00  0.00000000E+00  0.00000000E+00
  0.00000000E+00  0.00000000E+00  0.00000000E+00
  0.00000000E+00  0.00000000E+00  0.00000000E+00
  0.00000000E+00  0.00000000E+00  0.00000000E+00
  0.00000000E+00  0.00000000E+00  0.00000000E+00
  0.00000000E+00  0.00000000E+00  0.00000000E+00
  0.00000000E+00  0.00000000E+00  0.00000000E+00
  0.00000000E+00  0.00000000E+00  0.00000000E+00
  0.00000000E+00  0.00000000E+00  0.00000000E+00
  0.00000000E+00  0.00000000E+00  0.00000000E+00
  0.00000000E+00  0.00000000E+00  0.00000000E+00
  0.00000000E+00  0.00000000E+00  0.00000000E+00
  0.00000000E+00  0.00000000E+00  0.00000000E+00
  0.00000000E+00  0.00000000E+00  0.00000000E+00
  0.00000000E+00  0.00000000E+00  0.00000000E+00
  0.00000000E+00  0.00000000E+00  0.00000000E+00
  0.00000000E+00  0.00000000E+00  0.00000000E+00
  0.00000000E+00  0.00000000E+00  0.00000000E+00
  0.00000000E+00  0.00000000E+00  0.00000000E+00
  0.00000000E+00  0.00000000E+00  0.00000000E+00
  0.00000000E+00  0.00000000E+00  0.00000000E+00
  0.00000000E+00  0.00000000E+00  0.00000000E+00
  0.00000000E+00  0.00000000E+00  0.00000000E+00
  0.00000000E+00  0.00000000E+00  0.00000000E+00
  0.00000000E+00  0.00000000E+00  0.00000000E+00
  0.00000000E+00  0.00000000E+00  0.00000000E+00
  0.00000000E+00  0.00000000E+00  0.00000000E+00
  0.00000000E+00  0.00000000E+00  0.00000000E+00
  0.00000000E+00  0.00000000E+00  0.00000000E+00
  0.00000000E+00  0.00000000E+00  0.00000000E+00
  0.00000000E+00  0.00000000E+00  0.00000000E+00
  0.00000000E+00  0.00000000E+00  0.00000000E+00
  0.00000000E+00  0.00000000E+00  0.00000000E+00
  0.00000000E+00  0.00000000E+00  0.00000000E+00
  0.00000000E+00  0.00000000E+00  0.00000000E+00
  0.00000000E+00  0.00000000E+00  0.00000000E+00
  0.00000000E+00  0.00000000E+00  0.00000000E+00
  0.00000000E+00  0.00000000E+00  0.00000000E+00
  0.00000000E+00  0.00000000E+00  0.00000000E+00
  0.00000000E+00  0.00000000E+00  0.00000000E+00
  0.00000000E+00  0.00000000E+00  0.00000000E+00
  0.00000000E+00  0.00000000E+00  0.00000000E+00
  0.00000000E+00  0.00000000E+00  0.00000000E+00
  0.00000000E+00  0.00000000E+00  0.00000000E+00
  0.00000000E+00  0.00000000E+00  0.00000000E+00
  0.00000000E+00  0.00000000E+00  0.00000000E+00
  0.00000000E+00  0.00000000E+00  0.00000000E+00
  0.00000000E+00  0.00000000E+00  0.00000000E+00
  0.00000000E+00  0.00000000E+00  0.00000000E+00
  0.00000000E+00  0.00000000E+00  0.00000000E+00
  0.00000000E+00  0.00000000E+00  0.00000000E+00
  0.00000000E+00  0.00000000E+00  0.00000000E+00
  0.00000000E+00  0.00000000E+00  0.00000000E+00
  0.00000000E+00  0.00000000E+00  0.00000000E+00
  0.00000000E+00  0.00000000E+00  0.00000000E+00
  0.00000000E+00  0.00000000E+00  0.00000000E+00
  0.00000000E+00  0.00000000E+00  0.00000000E+00
  0.00000000E+00  0.00000000E+00  0.00000000E+00
  0.00000000E+00  0.00000000E+00  0.00000000E+00
  0.00000000E+00  0.00000000E+00  0.00000000E+00
  0.00000000E+00  0.00000000E+00  0.00000000E+00
  0.00000000E+00  0.00000000E+00  0.00000000E+00
  0.00000000E+00  0.00000000E+00  0.00000000E+00
  0.00000000E+00  0.00000000E+00  0.00000000E+00
  0.00000000E+00  0.00000000E+00  0.00000000E+00
  0.00000000E+00  0.00000000E+00  0.00000000E+00
  0.00000000E+00  0.00000000E+00  0.00000000E+00
  0.00000000E+00  0.00000000E+00  0.00000000E+00
  0.00000000E+00  0.00000000E+00  0.00000000E+00
  0.00000000E+00  0.00000000E+00  0.00000000E+00
  0.00000000E+00  0.00000000E+00  0.00000000E+00
  0.00000000E+00  0.00000000E+00  0.00000000E+00
  0.00000000E+00  0.00000000E+00  0.00000000E+00
  0.00000000E+00  0.00000000E+00  0.00000000E+00
  0.00000000E+00  0.00000000E+00  0.00000000E+00
  0.00000000E+00  0.00000000E+00  0.00000000E+00
  0.00000000E+00  0.00000000E+00  0.00000000E+00
  0.00000000E+00  0.00000000E+00  0.00000000E+00
  0.00000000E+00  0.00000000E+00  0.00000000E+00
  0.00000000E+00  0.00000000E+00  0.00000000E+00
  0.00000000E+00  0.00000000E+00  0.00000000E+00
  0.00000000E+00  0.00000000E+00  0.00000000E+00
  0.00000000E+00  0.00000000E+00  0.00000000E+00
