Nb18 Re18 Te36 S36                      
   1.00000000000000     
    10.0282306189869210  -18.1415628917032166    0.0000000000000000
    20.0885016145517064    0.0178302243245671    0.0000000000000000
     0.0000000000000000    0.0000000000000000   23.3715000000000011
   Re   Nb   S    Te
    18    18    36    36
Direct
  0.0446228972642910  0.3973214665977043  0.4973149022357754
  0.7215003464974652  0.0575058886812491  0.4988745207575322
  0.7242699949455588  0.8891252844602069  0.5062988753911432
  0.5565176661025785  0.3831912320483339  0.4994220196619141
  0.5537491389023897  0.5558637363184056  0.5040833081128080
  0.3896452504088360  0.3872944204705698  0.5008797124771935
  0.3868670909092281  0.8855472261010789  0.5012834355597823
  0.2273557200965072  0.2126245901405600  0.4975212415961541
  0.2318460436785260  0.5502721847814666  0.4997792343408273
  0.2317420168187806  0.7161499312516568  0.4990650101141842
  0.8912138780416033  0.2270762957119903  0.4972498173296587
  0.5565215362085054  0.8931902693312930  0.5069394835634640
  0.2150064227007152  0.0587389110826860  0.4972774300451582
  0.8868621010585477  0.7200612621684813  0.5016703377742361
  0.0466649575506394  0.8979651688631355  0.4958418522838227
  0.8876782818586304  0.3903727555678254  0.4988329995067889
  0.5582011995942245  0.0504332429343168  0.5060277046507556
  0.7247819681962118  0.5588410534938761  0.5047540008788987
  0.5657694431556192  0.7114021392092699  0.5053917427435619
  0.2317814170176967  0.3864168244276072  0.5005955875961353
  0.8910323291158532  0.5554782956459513  0.5020539099077264
  0.5552469936573305  0.2253555690460404  0.4995521816738970
  0.8947971528335197  0.0526318867782857  0.4953361604400900
  0.7217387977834069  0.3854235161708315  0.4990434585952981
  0.0499420655947091  0.5557964135473372  0.4985126804563850
  0.3833452226558721  0.2256228855785861  0.5021125374779669
  0.0574948251046331  0.0532462200376518  0.4990293190869787
  0.0564715348670162  0.2264460316561665  0.4971818848919201
  0.0545993581060893  0.7263478466799829  0.4965459039385753
  0.8861003083328741  0.8892511449508039  0.4986325030506599
  0.7181832320751218  0.2248887865504656  0.4951808762651007
  0.7303955313199537  0.7145215132011725  0.5053951491880824
  0.3903697103304539  0.0583516300036100  0.5032106011901748
  0.3848603749073922  0.5538634555811686  0.5019300241238078
  0.3890841342113576  0.7191307323716870  0.5020428776177374
  0.2259722084636578  0.8951543380696293  0.4982233420838312
  0.9996944943018292 -0.0003478200866454  0.5636857370948016
  0.8306654304105096  0.0042752899868317  0.5594553480100821
  0.3374803202389712  0.3348943693659238  0.5679086674955621
  0.5024145445848226  0.6628570006967127  0.4415078037229290
  0.6624989439773564  0.3311684434434666  0.5638339457814400
  0.0000300546640249  0.4986193521193502  0.5663260963001675
  0.3355871663759475  0.6634073650733172  0.4347382797016590
  0.3336684071760596  0.1667602711148418  0.4345851600908948
  0.5038834153020126  0.9980880197717940  0.4430152462005735
  0.8294363750630280  0.5027550773293766  0.4408564365327908
  0.4952380843927669  0.3365316575474020  0.4359460874741946
  0.0026253863449768  0.0021742888445415  0.4297881952741427
  0.9995446378150816  0.1677992037997632  0.4365992940850830
  0.1675787527801004  0.1657639210284308  0.5597076847876209
  0.1656797342069658  0.0044362219194905  0.5646731220180348
  0.9974453228483887  0.6697778241232228  0.5604976870229447
  0.8278277607087163  0.8303488347023145  0.4416316262682223
  0.6597096479907159  0.3368488770898941  0.4322952415953423
  0.6739918344181098  0.6613376188727116  0.5718240915394732
  0.9987075517392726  0.8389077034203565  0.5595802099821787
  0.3331847945076670  0.8324038840955700  0.5639395384118772
  0.3390142210129627  0.3330105769430177  0.4346000509113866
  0.4972033860835543  0.3355943958310398  0.5642869291820948
  0.6735518679143750  0.6630060334806106  0.4386166488638015
  0.9952060636028415  0.5024773189049001  0.4321474076754725
  0.9956894656070664  0.3394706697187908  0.5596895720646905
  0.3312211047630549  0.6663005752154785  0.5674629881784625
  0.8353414493395371  0.3328214561182202  0.5595279316851954
  0.3358293264780537  0.4931743371646622  0.4357760928046132
  0.8410887473526326  0.6629838147747351  0.5697084461602856
  0.3268894892190499  0.1703844596012396  0.5669634004897862
  0.6683104623854433  0.1667006266883117  0.5608571860130327
  0.8346504262833341  0.6660082747049247  0.4363720448097403
  0.1652307874030564  0.0037396060429107  0.4315098077638754
  0.6659636250305596  0.9982735387475918  0.4451536540143468
  0.3337796561140835  0.4936129519676565  0.5661734625503444
  0.9970683995985479  0.8395694522859837  0.4131338223560138
  0.1703180640487953  0.6657541154672791  0.5767282450650366
  0.3245500133713893  0.0004795830600031  0.5773970306809001
  0.4992982761617039  0.1597891783313235  0.4232728042804599
  0.4988105516204408  0.1688160914469599  0.5826027377322984
  0.1663057319582650  0.5026979359899971  0.5796285591072422
  0.9982264559823302  0.1706226610347441  0.5808717572664794
  0.8334610988843444  0.1695264828657493  0.5755360614009651
  0.3325574599860301  0.9990005069440696  0.4234216029461998
  0.6641880947618181  0.1640638786945985  0.4134344674003999
  0.8363381368150631  0.1693178668719808  0.4161236607923273
  0.4983316902331325  0.6628759854659766  0.5880391931767788
  0.8265957134846466  0.0004604287105443  0.4143030554524502
  0.5006528265319385  0.4981919369538155  0.4236100775288710
  0.6634017375661145  0.5081278195914759  0.4253396809934225
  0.1645944672919652  0.3333835424923238  0.4241541856010910
  0.6670705556626187  0.8345065240822680  0.4278220722653238
  0.6673148157157075  0.4991401034574331  0.5806164458754998
  0.8354639916623449  0.4956889832592564  0.5838577738749196
  0.1686664977063260  0.1650316442691425  0.4142617725193706
  0.9907701926741461  0.6707547870709505  0.4163524672461464
  0.1753799582987114  0.6622112472547490  0.4205263977802017
  0.5037938868519908  0.8316139935908280  0.4280237257430925
  0.1612750305514650  0.3304252678545636  0.5727171326804826
  0.6691579045759597  0.8313549397111479  0.5846942976719257
  0.3391818804063130  0.8282953500316842  0.4155366488106895
  0.1689979104402861  0.5007615777522713  0.4197804593874407
  0.4988192824116981  0.0020565778224952  0.5883944513050742
  0.8336646132783249  0.3356666216071819  0.4159797072536424
  0.9935492936352723  0.3420367442822348  0.4151482751891852
  0.1617057145179923  0.8370956953405231  0.5728276344395904
  0.8376980204585618  0.8290003811748692  0.5844532314431052
  0.5013342043077670  0.4924125446307775  0.5803231794176004
  0.6708327143169325  0.0046114639745025  0.5830689053044956
  0.4972135910562108  0.8329398304933433  0.5805028170346536
  0.1653413343721266  0.8346520664591334  0.4231569138114765
 
  0.00000000E+00  0.00000000E+00  0.00000000E+00
  0.00000000E+00  0.00000000E+00  0.00000000E+00
  0.00000000E+00  0.00000000E+00  0.00000000E+00
  0.00000000E+00  0.00000000E+00  0.00000000E+00
  0.00000000E+00  0.00000000E+00  0.00000000E+00
  0.00000000E+00  0.00000000E+00  0.00000000E+00
  0.00000000E+00  0.00000000E+00  0.00000000E+00
  0.00000000E+00  0.00000000E+00  0.00000000E+00
  0.00000000E+00  0.00000000E+00  0.00000000E+00
  0.00000000E+00  0.00000000E+00  0.00000000E+00
  0.00000000E+00  0.00000000E+00  0.00000000E+00
  0.00000000E+00  0.00000000E+00  0.00000000E+00
  0.00000000E+00  0.00000000E+00  0.00000000E+00
  0.00000000E+00  0.00000000E+00  0.00000000E+00
  0.00000000E+00  0.00000000E+00  0.00000000E+00
  0.00000000E+00  0.00000000E+00  0.00000000E+00
  0.00000000E+00  0.00000000E+00  0.00000000E+00
  0.00000000E+00  0.00000000E+00  0.00000000E+00
  0.00000000E+00  0.00000000E+00  0.00000000E+00
  0.00000000E+00  0.00000000E+00  0.00000000E+00
  0.00000000E+00  0.00000000E+00  0.00000000E+00
  0.00000000E+00  0.00000000E+00  0.00000000E+00
  0.00000000E+00  0.00000000E+00  0.00000000E+00
  0.00000000E+00  0.00000000E+00  0.00000000E+00
  0.00000000E+00  0.00000000E+00  0.00000000E+00
  0.00000000E+00  0.00000000E+00  0.00000000E+00
  0.00000000E+00  0.00000000E+00  0.00000000E+00
  0.00000000E+00  0.00000000E+00  0.00000000E+00
  0.00000000E+00  0.00000000E+00  0.00000000E+00
  0.00000000E+00  0.00000000E+00  0.00000000E+00
  0.00000000E+00  0.00000000E+00  0.00000000E+00
  0.00000000E+00  0.00000000E+00  0.00000000E+00
  0.00000000E+00  0.00000000E+00  0.00000000E+00
  0.00000000E+00  0.00000000E+00  0.00000000E+00
  0.00000000E+00  0.00000000E+00  0.00000000E+00
  0.00000000E+00  0.00000000E+00  0.00000000E+00
  0.00000000E+00  0.00000000E+00  0.00000000E+00
  0.00000000E+00  0.00000000E+00  0.00000000E+00
  0.00000000E+00  0.00000000E+00  0.00000000E+00
  0.00000000E+00  0.00000000E+00  0.00000000E+00
  0.00000000E+00  0.00000000E+00  0.00000000E+00
  0.00000000E+00  0.00000000E+00  0.00000000E+00
  0.00000000E+00  0.00000000E+00  0.00000000E+00
  0.00000000E+00  0.00000000E+00  0.00000000E+00
  0.00000000E+00  0.00000000E+00  0.00000000E+00
  0.00000000E+00  0.00000000E+00  0.00000000E+00
  0.00000000E+00  0.00000000E+00  0.00000000E+00
  0.00000000E+00  0.00000000E+00  0.00000000E+00
  0.00000000E+00  0.00000000E+00  0.00000000E+00
  0.00000000E+00  0.00000000E+00  0.00000000E+00
  0.00000000E+00  0.00000000E+00  0.00000000E+00
  0.00000000E+00  0.00000000E+00  0.00000000E+00
  0.00000000E+00  0.00000000E+00  0.00000000E+00
  0.00000000E+00  0.00000000E+00  0.00000000E+00
  0.00000000E+00  0.00000000E+00  0.00000000E+00
  0.00000000E+00  0.00000000E+00  0.00000000E+00
  0.00000000E+00  0.00000000E+00  0.00000000E+00
  0.00000000E+00  0.00000000E+00  0.00000000E+00
  0.00000000E+00  0.00000000E+00  0.00000000E+00
  0.00000000E+00  0.00000000E+00  0.00000000E+00
  0.00000000E+00  0.00000000E+00  0.00000000E+00
  0.00000000E+00  0.00000000E+00  0.00000000E+00
  0.00000000E+00  0.00000000E+00  0.00000000E+00
  0.00000000E+00  0.00000000E+00  0.00000000E+00
  0.00000000E+00  0.00000000E+00  0.00000000E+00
  0.00000000E+00  0.00000000E+00  0.00000000E+00
  0.00000000E+00  0.00000000E+00  0.00000000E+00
  0.00000000E+00  0.00000000E+00  0.00000000E+00
  0.00000000E+00  0.00000000E+00  0.00000000E+00
  0.00000000E+00  0.00000000E+00  0.00000000E+00
  0.00000000E+00  0.00000000E+00  0.00000000E+00
  0.00000000E+00  0.00000000E+00  0.00000000E+00
  0.00000000E+00  0.00000000E+00  0.00000000E+00
  0.00000000E+00  0.00000000E+00  0.00000000E+00
  0.00000000E+00  0.00000000E+00  0.00000000E+00
  0.00000000E+00  0.00000000E+00  0.00000000E+00
  0.00000000E+00  0.00000000E+00  0.00000000E+00
  0.00000000E+00  0.00000000E+00  0.00000000E+00
  0.00000000E+00  0.00000000E+00  0.00000000E+00
  0.00000000E+00  0.00000000E+00  0.00000000E+00
  0.00000000E+00  0.00000000E+00  0.00000000E+00
  0.00000000E+00  0.00000000E+00  0.00000000E+00
  0.00000000E+00  0.00000000E+00  0.00000000E+00
  0.00000000E+00  0.00000000E+00  0.00000000E+00
  0.00000000E+00  0.00000000E+00  0.00000000E+00
  0.00000000E+00  0.00000000E+00  0.00000000E+00
  0.00000000E+00  0.00000000E+00  0.00000000E+00
  0.00000000E+00  0.00000000E+00  0.00000000E+00
  0.00000000E+00  0.00000000E+00  0.00000000E+00
  0.00000000E+00  0.00000000E+00  0.00000000E+00
  0.00000000E+00  0.00000000E+00  0.00000000E+00
  0.00000000E+00  0.00000000E+00  0.00000000E+00
  0.00000000E+00  0.00000000E+00  0.00000000E+00
  0.00000000E+00  0.00000000E+00  0.00000000E+00
  0.00000000E+00  0.00000000E+00  0.00000000E+00
  0.00000000E+00  0.00000000E+00  0.00000000E+00
  0.00000000E+00  0.00000000E+00  0.00000000E+00
  0.00000000E+00  0.00000000E+00  0.00000000E+00
  0.00000000E+00  0.00000000E+00  0.00000000E+00
  0.00000000E+00  0.00000000E+00  0.00000000E+00
  0.00000000E+00  0.00000000E+00  0.00000000E+00
  0.00000000E+00  0.00000000E+00  0.00000000E+00
  0.00000000E+00  0.00000000E+00  0.00000000E+00
  0.00000000E+00  0.00000000E+00  0.00000000E+00
  0.00000000E+00  0.00000000E+00  0.00000000E+00
  0.00000000E+00  0.00000000E+00  0.00000000E+00
  0.00000000E+00  0.00000000E+00  0.00000000E+00
  0.00000000E+00  0.00000000E+00  0.00000000E+00
