Nb18 Re18 Te36 S36                      
   1.00000000000000     
    10.0403273667370865  -18.1448438529219302    0.0000000000000000
    20.1043679327444913    0.0122105439963413    0.0000000000000000
     0.0000000000000000    0.0000000000000000   23.3715000000000011
   Re   Nb   S    Te
    18    18    36    36
Direct
  0.9014052397411649  0.0539758619480512  0.5027731952886738
  0.8928979736885427  0.2193845380526237  0.4960128737481597
  0.0449997405478470  0.2257539748601513  0.4945469448023996
  0.0512305445401372  0.5534025415558304  0.5027693277099750
  0.0497717889167849  0.7308165696231250  0.5068026719864112
  0.7192384463473112  0.0617897560080167  0.4999629266171200
  0.7229126939452838  0.2188200914810204  0.4974144130601134
  0.7264114897363819  0.3827053183148471  0.4925377020922787
  0.7301000064819593  0.5453366877807888  0.4963375443079308
  0.7283249342376801  0.7227460700015983  0.5011984526067796
  0.5591005897702818  0.0495735275267235  0.4963457995556121
  0.5541535687798220  0.3855984656578815  0.4956838306132635
  0.3809160753420547  0.2278378501773131  0.5013484558287402
  0.2159236328663984  0.2303884252704562  0.4996423469698699
  0.2232014929650533  0.5529403217721099  0.5074231870363073
  0.2271389544787759  0.7268415955266199  0.5082634326920172
  0.7249165042678822  0.8877217355815021  0.5021665804660393
  0.2228435694789933  0.8902956844576397  0.5048308424129252
  0.5501015665131367  0.7268640657240258  0.4982104519248391
  0.5595916490508557  0.5532041007533476  0.4950218105383417
  0.0542225007201410  0.0578055645366306  0.5001697579544842
  0.0563379279727459  0.8897568584372383  0.5055311982423123
  0.8891944378380446  0.3862114448891418  0.4942596714607631
  0.0561785901954117  0.3891069338048429  0.4984967956170375
  0.8918984012641061  0.5530555175389223  0.4993743899930908
  0.8844070286410886  0.7247047339860959  0.5038872158694851
  0.8954116966976393  0.8856950256786673  0.5047049399821982
  0.5637873302454299  0.2207632999154875  0.4974093031699619
  0.5584009866291829  0.8867302861782408  0.4988065591509916
  0.3934372727912256  0.0531205096290622  0.4969538230038818
  0.3897300923161197  0.3867241304279471  0.5044038581013672
  0.3800565650074821  0.5624436798607039  0.5041359394454954
  0.3846705262141670  0.7228536244557783  0.5027856639654963
  0.3920949634619120  0.8916419031558017  0.4997747088220054
  0.2286791384245400  0.0492338627175988  0.4988828706236020
  0.2218597943317866  0.3839339835694797  0.5044741291952372
  0.0026910858239424  0.9976257382610322  0.4363369874094892
  0.9979482052439027  0.1648486815385322  0.4318901589211068
  0.0012548419933348  0.5007528452540023  0.4344834108503631
 -0.0011471121421924  0.4974067402637188  0.5663337620713818
  0.0027775234612355  0.8330565165541806  0.4387893538611884
  0.8375615345870552  0.1609261635875129  0.4403420669863835
  0.8314463414258544  0.3298595232669704  0.5561875545071123
  0.8320601223787280  0.8367337861906391  0.4407261928225600
  0.6653674836327079  0.0020907432183722  0.5576125577081370
  0.6735736396653084  0.1627798945206599  0.4324964232792999
  0.6698435886651916  0.1679667876404018  0.5640521299111391
  0.6653382024212403  0.3333589924621159  0.5529968024615094
  0.6733336850048759  0.4910524625159889  0.5550143831364021
  0.6732777121436699  0.8307010798006289  0.4397907380625278
  0.3362319826606354  0.9985339477766118  0.4316397626422540
  0.3372192606624982  0.0010607282463804  0.5653438365914097
  0.3263679817484939  0.5017656178530616  0.4430143544382000
  0.3247719744912761  0.6727441494002773  0.4385098479923668
  0.3315773140800440  0.6701435260462104  0.5720057908201336
  0.3293183054405754  0.8363226816143925  0.4418806148517677
  0.1617211889759230  0.3317258253197486  0.5678585473200820
  0.0023151154574888  0.0024380978427160  0.5697206809752999
  0.9974234130850360  0.3315172188355040  0.5590091424434499
  0.5000551769320473  0.8352175125528580  0.4319607257011860
  0.1705316660369823  0.8327303047758722  0.4448863781612774
  0.3308589256051213  0.3358061556304959  0.4400624015394198
  0.9954550373761968  0.1730681985862821  0.5621598492894686
  0.1667861654409540  0.0019057357608503  0.5635579163289256
  0.5063564267875117  0.3306224323989420  0.5617901601810491
  0.5038724411844238 -0.0008968552363115  0.5604397368962000
  0.1662974250755135  0.3345628515469175  0.4339749996580223
  0.5011030548725068  0.8346309887652081  0.5660448894920918
  0.8345178517531124  0.5000556818331446  0.4332837703844635
  0.0007548296597917  0.8352716624240303  0.5725481300569518
  0.5011872738151808  0.6639473232318653  0.5608559027257715
  0.8315134618510382  0.6640022889605692  0.5652724761703143
  0.5046411244833333  0.9951867238291455  0.4124917940286099
  0.1646461027175490  0.6707031651156092  0.5814347140265433
  0.1632894209580467  0.1685860211900136  0.4217210608095263
  0.6725254394423249  0.4966814238109061  0.4129226095404271
  0.1686697996386466  0.8388443210795727  0.5884548999213134
  0.4905901333391230  0.5027239538748685  0.4188619446043065
  0.1647610387621311  0.5011247514414685  0.4263573667356927
  0.6718583789409216  0.9960399000821422  0.4201863320967267
  0.8323680837003932  0.6684531712574324  0.4167523427379854
  0.3259338874052017  0.1738776964794498  0.4204555928323030
  0.3269024542075960  0.1670950152852348  0.5778435248640871
  0.8338312166795073  0.1707969110876612  0.5776985142093649
  0.0000359231970993  0.6694894052368953  0.4263702996128036
  0.4935357326159064  0.1675518387990670  0.4232202411793815
  0.0010938082719673  0.3340012597706297  0.4112833613075131
 -0.0019378210813311  0.6653613532880283  0.5829540784650818
  0.8373059466564613  0.0026385166032973  0.4258083991073039
  0.8315100905277256  0.0074312764456657  0.5790814245571909
  0.8351086963389613  0.3252200903028022  0.4117077719565617
  0.8336221696825008  0.4943608735674752  0.5812415380333515
  0.8279258456447797  0.8382959383352805  0.5880106734690950
  0.6639686550818706  0.3297012468088736  0.4167466727392820
  0.6694442681077142  0.6668784719382325  0.4233402379866761
  0.6688793535453105  0.6609415993275957  0.5742091233390777
  0.6679188547235793  0.8324312170933764  0.5829300523021066
  0.4997123406621119  0.1630881531868177  0.5741162912309733
  0.4947310170406642  0.3348792657904577  0.4147704757924359
  0.5045972063905290  0.4952693470163164  0.5777373304761637
  0.4925188266724494  0.6725107737459964  0.4130841984795688
  0.3351499521597974  0.3297002239723559  0.5885485092441701
  0.3312861085433261  0.5009925999996997  0.5894729288980554
  0.3342466618055946  0.8382390660773709  0.5856115144880559
  0.1691304244331188  0.9927304344326119  0.4175187481393256
  0.1565921543373152  0.1711207893180042  0.5736620025810428
  0.1601001585698150  0.4998954382018173  0.5834005639957653
  0.1663417040533690  0.6711921961121277  0.4337818147082126
 
  0.00000000E+00  0.00000000E+00  0.00000000E+00
  0.00000000E+00  0.00000000E+00  0.00000000E+00
  0.00000000E+00  0.00000000E+00  0.00000000E+00
  0.00000000E+00  0.00000000E+00  0.00000000E+00
  0.00000000E+00  0.00000000E+00  0.00000000E+00
  0.00000000E+00  0.00000000E+00  0.00000000E+00
  0.00000000E+00  0.00000000E+00  0.00000000E+00
  0.00000000E+00  0.00000000E+00  0.00000000E+00
  0.00000000E+00  0.00000000E+00  0.00000000E+00
  0.00000000E+00  0.00000000E+00  0.00000000E+00
  0.00000000E+00  0.00000000E+00  0.00000000E+00
  0.00000000E+00  0.00000000E+00  0.00000000E+00
  0.00000000E+00  0.00000000E+00  0.00000000E+00
  0.00000000E+00  0.00000000E+00  0.00000000E+00
  0.00000000E+00  0.00000000E+00  0.00000000E+00
  0.00000000E+00  0.00000000E+00  0.00000000E+00
  0.00000000E+00  0.00000000E+00  0.00000000E+00
  0.00000000E+00  0.00000000E+00  0.00000000E+00
  0.00000000E+00  0.00000000E+00  0.00000000E+00
  0.00000000E+00  0.00000000E+00  0.00000000E+00
  0.00000000E+00  0.00000000E+00  0.00000000E+00
  0.00000000E+00  0.00000000E+00  0.00000000E+00
  0.00000000E+00  0.00000000E+00  0.00000000E+00
  0.00000000E+00  0.00000000E+00  0.00000000E+00
  0.00000000E+00  0.00000000E+00  0.00000000E+00
  0.00000000E+00  0.00000000E+00  0.00000000E+00
  0.00000000E+00  0.00000000E+00  0.00000000E+00
  0.00000000E+00  0.00000000E+00  0.00000000E+00
  0.00000000E+00  0.00000000E+00  0.00000000E+00
  0.00000000E+00  0.00000000E+00  0.00000000E+00
  0.00000000E+00  0.00000000E+00  0.00000000E+00
  0.00000000E+00  0.00000000E+00  0.00000000E+00
  0.00000000E+00  0.00000000E+00  0.00000000E+00
  0.00000000E+00  0.00000000E+00  0.00000000E+00
  0.00000000E+00  0.00000000E+00  0.00000000E+00
  0.00000000E+00  0.00000000E+00  0.00000000E+00
  0.00000000E+00  0.00000000E+00  0.00000000E+00
  0.00000000E+00  0.00000000E+00  0.00000000E+00
  0.00000000E+00  0.00000000E+00  0.00000000E+00
  0.00000000E+00  0.00000000E+00  0.00000000E+00
  0.00000000E+00  0.00000000E+00  0.00000000E+00
  0.00000000E+00  0.00000000E+00  0.00000000E+00
  0.00000000E+00  0.00000000E+00  0.00000000E+00
  0.00000000E+00  0.00000000E+00  0.00000000E+00
  0.00000000E+00  0.00000000E+00  0.00000000E+00
  0.00000000E+00  0.00000000E+00  0.00000000E+00
  0.00000000E+00  0.00000000E+00  0.00000000E+00
  0.00000000E+00  0.00000000E+00  0.00000000E+00
  0.00000000E+00  0.00000000E+00  0.00000000E+00
  0.00000000E+00  0.00000000E+00  0.00000000E+00
  0.00000000E+00  0.00000000E+00  0.00000000E+00
  0.00000000E+00  0.00000000E+00  0.00000000E+00
  0.00000000E+00  0.00000000E+00  0.00000000E+00
  0.00000000E+00  0.00000000E+00  0.00000000E+00
  0.00000000E+00  0.00000000E+00  0.00000000E+00
  0.00000000E+00  0.00000000E+00  0.00000000E+00
  0.00000000E+00  0.00000000E+00  0.00000000E+00
  0.00000000E+00  0.00000000E+00  0.00000000E+00
  0.00000000E+00  0.00000000E+00  0.00000000E+00
  0.00000000E+00  0.00000000E+00  0.00000000E+00
  0.00000000E+00  0.00000000E+00  0.00000000E+00
  0.00000000E+00  0.00000000E+00  0.00000000E+00
  0.00000000E+00  0.00000000E+00  0.00000000E+00
  0.00000000E+00  0.00000000E+00  0.00000000E+00
  0.00000000E+00  0.00000000E+00  0.00000000E+00
  0.00000000E+00  0.00000000E+00  0.00000000E+00
  0.00000000E+00  0.00000000E+00  0.00000000E+00
  0.00000000E+00  0.00000000E+00  0.00000000E+00
  0.00000000E+00  0.00000000E+00  0.00000000E+00
  0.00000000E+00  0.00000000E+00  0.00000000E+00
  0.00000000E+00  0.00000000E+00  0.00000000E+00
  0.00000000E+00  0.00000000E+00  0.00000000E+00
  0.00000000E+00  0.00000000E+00  0.00000000E+00
  0.00000000E+00  0.00000000E+00  0.00000000E+00
  0.00000000E+00  0.00000000E+00  0.00000000E+00
  0.00000000E+00  0.00000000E+00  0.00000000E+00
  0.00000000E+00  0.00000000E+00  0.00000000E+00
  0.00000000E+00  0.00000000E+00  0.00000000E+00
  0.00000000E+00  0.00000000E+00  0.00000000E+00
  0.00000000E+00  0.00000000E+00  0.00000000E+00
  0.00000000E+00  0.00000000E+00  0.00000000E+00
  0.00000000E+00  0.00000000E+00  0.00000000E+00
  0.00000000E+00  0.00000000E+00  0.00000000E+00
  0.00000000E+00  0.00000000E+00  0.00000000E+00
  0.00000000E+00  0.00000000E+00  0.00000000E+00
  0.00000000E+00  0.00000000E+00  0.00000000E+00
  0.00000000E+00  0.00000000E+00  0.00000000E+00
  0.00000000E+00  0.00000000E+00  0.00000000E+00
  0.00000000E+00  0.00000000E+00  0.00000000E+00
  0.00000000E+00  0.00000000E+00  0.00000000E+00
  0.00000000E+00  0.00000000E+00  0.00000000E+00
  0.00000000E+00  0.00000000E+00  0.00000000E+00
  0.00000000E+00  0.00000000E+00  0.00000000E+00
  0.00000000E+00  0.00000000E+00  0.00000000E+00
  0.00000000E+00  0.00000000E+00  0.00000000E+00
  0.00000000E+00  0.00000000E+00  0.00000000E+00
  0.00000000E+00  0.00000000E+00  0.00000000E+00
  0.00000000E+00  0.00000000E+00  0.00000000E+00
  0.00000000E+00  0.00000000E+00  0.00000000E+00
  0.00000000E+00  0.00000000E+00  0.00000000E+00
  0.00000000E+00  0.00000000E+00  0.00000000E+00
  0.00000000E+00  0.00000000E+00  0.00000000E+00
  0.00000000E+00  0.00000000E+00  0.00000000E+00
  0.00000000E+00  0.00000000E+00  0.00000000E+00
  0.00000000E+00  0.00000000E+00  0.00000000E+00
  0.00000000E+00  0.00000000E+00  0.00000000E+00
  0.00000000E+00  0.00000000E+00  0.00000000E+00
  0.00000000E+00  0.00000000E+00  0.00000000E+00
